%chk=methane.chk
%nprocshared=4
%mem=1GB
# HF/3-21G Opt

Methane molecule - openWFN example

0 1
C   0.000000   0.000000   0.000000
H   0.629118   0.629118   0.629118
H  -0.629118  -0.629118   0.629118
H  -0.629118   0.629118  -0.629118
H   0.629118  -0.629118  -0.629118

