[Molden Format]
made by pyscf v[2.12.1]
[Atoms] (AU)
C   1   6     2.63994739601739     0.00000000000000     0.00000000000000
C   2   6     1.31997369800870     2.28626625454379     0.00000000000000
C   3   6    -1.31997369800870     2.28626625454379     0.00000000000000
C   4   6    -2.63994739601739     0.00000000000000     0.00000000000000
C   5   6    -1.31997369800870    -2.28626625454379     0.00000000000000
C   6   6     1.31997369800870    -2.28626625454379     0.00000000000000
H   7   1     4.68652078892135     0.00000000000000     0.00000000000000
H   8   1     2.34326039446068     4.05864038677337     0.00000000000000
H   9   1    -2.34326039446068     4.05864038677337     0.00000000000000
H   10   1    -4.68652078892135     0.00000000000000     0.00000000000000
H   11   1    -2.34326039446068    -4.05864038677337     0.00000000000000
H   12   1     2.34326039446068    -4.05864038677337     0.00000000000000
[GTO]
1 0
 s    3 1.00
             71.616837    0.15432897000916
             13.045096    0.53532814003178
             3.5305122     0.4446345400264
 s    3 1.00
             2.9412494  -0.099967230075964
             0.6834831    0.39951283030359
             0.2222899    0.70011547053201
 p    3 1.00
             2.9412494    0.15591627210511
             0.6834831    0.60768372820466
             0.2222899    0.39195739529202

2 0
 s    3 1.00
             71.616837    0.15432897000916
             13.045096    0.53532814003178
             3.5305122     0.4446345400264
 s    3 1.00
             2.9412494  -0.099967230075964
             0.6834831    0.39951283030359
             0.2222899    0.70011547053201
 p    3 1.00
             2.9412494    0.15591627210511
             0.6834831    0.60768372820466
             0.2222899    0.39195739529202

3 0
 s    3 1.00
             71.616837    0.15432897000916
             13.045096    0.53532814003178
             3.5305122     0.4446345400264
 s    3 1.00
             2.9412494  -0.099967230075964
             0.6834831    0.39951283030359
             0.2222899    0.70011547053201
 p    3 1.00
             2.9412494    0.15591627210511
             0.6834831    0.60768372820466
             0.2222899    0.39195739529202

4 0
 s    3 1.00
             71.616837    0.15432897000916
             13.045096    0.53532814003178
             3.5305122     0.4446345400264
 s    3 1.00
             2.9412494  -0.099967230075964
             0.6834831    0.39951283030359
             0.2222899    0.70011547053201
 p    3 1.00
             2.9412494    0.15591627210511
             0.6834831    0.60768372820466
             0.2222899    0.39195739529202

5 0
 s    3 1.00
             71.616837    0.15432897000916
             13.045096    0.53532814003178
             3.5305122     0.4446345400264
 s    3 1.00
             2.9412494  -0.099967230075964
             0.6834831    0.39951283030359
             0.2222899    0.70011547053201
 p    3 1.00
             2.9412494    0.15591627210511
             0.6834831    0.60768372820466
             0.2222899    0.39195739529202

6 0
 s    3 1.00
             71.616837    0.15432897000916
             13.045096    0.53532814003178
             3.5305122     0.4446345400264
 s    3 1.00
             2.9412494  -0.099967230075964
             0.6834831    0.39951283030359
             0.2222899    0.70011547053201
 p    3 1.00
             2.9412494    0.15591627210511
             0.6834831    0.60768372820466
             0.2222899    0.39195739529202

7 0
 s    3 1.00
            3.42525091    0.15432897070298
            0.62391373    0.53532814243847
             0.1688554    0.44463454202535

8 0
 s    3 1.00
            3.42525091    0.15432897070298
            0.62391373    0.53532814243847
             0.1688554    0.44463454202535

9 0
 s    3 1.00
            3.42525091    0.15432897070298
            0.62391373    0.53532814243847
             0.1688554    0.44463454202535

10 0
 s    3 1.00
            3.42525091    0.15432897070298
            0.62391373    0.53532814243847
             0.1688554    0.44463454202535

11 0
 s    3 1.00
            3.42525091    0.15432897070298
            0.62391373    0.53532814243847
             0.1688554    0.44463454202535

12 0
 s    3 1.00
            3.42525091    0.15432897070298
            0.62391373    0.53532814243847
             0.1688554    0.44463454202535

[5d]
[7f]
[9g]

[MO]
 Sym= A
 Ene=    -11.02905941
 Spin= Alpha
 Occup=    2.00000
   1    4.2941792250004e-08
   2    1.2584307624405e-09
   3    4.2152586620754e-11
   4    0.0037721419743779
   5    -1.5787602946524e-17
   6     -0.49626250708699
   7    -0.014559317490336
   8    -0.0018737397696749
   9    0.0005267221968778
  10    7.6942560624117e-17
  11     -0.49626254991096
  12    -0.014559318747103
  13    0.0018737393676841
  14    0.00052672191702982
  15    -1.0832688137407e-16
  16    -4.2651405236258e-08
  17    -1.2524862688086e-09
  18    4.0821092977569e-11
  19    0.0037721419744839
  20    9.3020497707406e-17
  21      0.49626250743753
  22     0.014559317498898
  23    -0.0018737397703538
  24    0.00052672219596284
  25    -7.6369470259911e-17
  26      0.49626255023457
  27     0.014559318754492
  28    0.0018737393684998
  29    0.00052672191609089
  30    1.4725372268774e-16
  31    -2.8587319459226e-10
  32    0.0033032877379187
  33    0.0033032880229784
  34    2.8385462561622e-10
  35    -0.0033032877403562
  36    -0.0033032880252283
 Sym= A
 Ene=    -11.02905936
 Spin= Alpha
 Occup=    2.00000
   1      -0.5730123308689
   2    -0.016810474392639
   3    -0.00055519780311638
   4    2.8165756707156e-10
   5    -3.0335128369363e-16
   6     -0.28653962360438
   7    -0.0084069957322432
   8    0.0026904046344309
   9    -0.001873628001215
  10    1.1070779526882e-16
  11       0.2865395499435
  12    0.0084069935673868
  13    0.0026904049136458
  14    0.0018736280818467
  15    8.4957362473436e-18
  16      0.57301233143697
  17     0.016810474406852
  18    -0.00055519780483395
  19    2.8184166961017e-10
  20    6.5134067472326e-19
  21      0.28653962410078
  22    0.0084069957433394
  23    0.0026904046338564
  24    -0.0018736280031411
  25    1.0599763467968e-18
  26     -0.28653954949384
  27    -0.0084069935583237
  28    0.0026904049144568
  29    0.0018736280798777
  30    -4.8019493116662e-18
  31    0.0038141211756925
  32    0.0019073156382645
  33    -0.0019073151480932
  34    -0.0038141211796425
  35    -0.0019073156417158
  36    0.0019073151449673
 Sym= A
 Ene=    -11.02903108
 Spin= Alpha
 Occup=    2.00000
   1      0.40535830446761
   2    0.0092007455963426
   3    0.0015486865362029
   4    -1.4347114861183e-12
   5    -4.8188439922094e-17
   6      0.40544639055568
   7    0.0092046055616569
   8    0.00077449946727783
   9    0.0013407795738903
  10    6.8150538742953e-17
  11       0.4054463902014
  12    0.0092046055511908
  13    -0.00077449947058774
  14     0.001340779571612
  15    8.5368926406268e-18
  16      0.40535830376732
  17    0.0092007455760894
  18    -0.0015486865354336
  19    -1.5566712043055e-12
  20    9.7811106817217e-19
  21      0.40544638979234
  22    0.0092046055389706
  23    -0.00077449946918039
  24    -0.0013407795720435
  25    4.3097185897789e-19
  26      0.40544639017761
  27    0.0092046055507844
  28    0.00077449946571347
  29    -0.001340779574294
  30    -1.3264062669861e-18
  31    -0.0028181666253452
  32    -0.0028187980421615
  33    -0.002818798039801
  34    -0.0028181666206914
  35    -0.0028187980370734
  36    -0.0028187980396496
 Sym= A
 Ene=    -11.02871325
 Spin= Alpha
 Occup=    2.00000
   1    4.479532006196e-12
   2    2.0642780584045e-13
   3    -2.2595613374177e-14
   4    -0.0039009021921902
   5    -2.7141330946523e-16
   6      0.49589494884817
   7     0.021571090046764
   8    -0.002512121635775
   9    -0.00045020916235997
  10    1.5784843958596e-16
  11     -0.49589494876553
  12    -0.021571090043623
  13    -0.0025121216363341
  14    0.00045020916189194
  15    -1.6391559541619e-16
  16    -1.0481609779015e-10
  17    -4.834518669352e-12
  18    -4.4617765523526e-13
  19    0.0039009021920883
  20    3.7421503419744e-16
  21      0.49589494890347
  22     0.021571090050221
  23    0.0025121216359466
  24    0.00045020916286275
  25    -2.2450982812524e-16
  26     -0.49589494884778
  27     -0.02157109004787
  28    0.0025121216364035
  29    -0.00045020916242309
  30    3.5373725835009e-16
  31    -3.6726120714355e-14
  32    -0.0034520548803974
  33    0.0034520548798264
  34    7.3532368311182e-13
  35    -0.0034520548808102
  36     0.003452054880418
 Sym= A
 Ene=    -11.02871322
 Spin= Alpha
 Occup=    2.00000
   1      0.57265174448921
   2     0.024909031032923
   3    -0.0019004347535318
   4    -2.8259602852027e-13
   5    -2.0133433510709e-16
   6     -0.28626349886869
   7    -0.012453113232122
   8    -0.0024504410547153
   9    0.0025122552601824
  10    9.8908415660638e-17
  11     -0.28626349908022
  12     -0.01245311324154
  13    0.0024504410536751
  14    0.0025122552604905
  15    2.1997964473116e-18
  16      0.57265174450767
  17     0.024909031035291
  18    0.0019004347540861
  19    4.8718002674539e-13
  20    -4.4097006292479e-20
  21     -0.28626349895542
  22    -0.012453113236493
  23    0.0024504410540691
  24    -0.0025122552603732
  25    -1.3216985975194e-18
  26     -0.28626349893961
  27    -0.012453113235588
  28    -0.002450441054118
  29    -0.0025122552602427
  30    -2.3361505973294e-18
  31    -0.0039863514107278
  32    0.0019927533119934
  33    0.0019927533134753
  34    -0.0039863514108948
  35    0.0019927533126149
  36    0.0019927533124953
 Sym= A
 Ene=    -11.02857322
 Spin= Alpha
 Occup=    2.00000
   1      0.40477050286877
   2     0.020898752231254
   3    -0.0024336468224877
   4    4.2415381630544e-13
   5    -1.3606244340401e-16
   6     -0.40472318007576
   7     -0.02089740696336
   8    0.0012166986976288
   9    0.0021077226709381
  10    -1.3827417998173e-16
  11      0.40472318002361
  12     0.020897406960922
  13    0.0012166986981275
  14    -0.0021077226703787
  15    -1.493581810481e-18
  16     -0.40477050273977
  17    -0.020898752225914
  18    -0.0024336468221531
  19    -3.687036057508e-13
  20    -3.4570104403162e-20
  21      0.40472317993008
  22     0.020897406956751
  23    0.0012166986975891
  24     0.002107722670295
  25    2.5818247611503e-18
  26     -0.40472317996766
  27    -0.020897406958761
  28    0.0012166986971456
  29    -0.0021077226708389
  30    -1.9559828659605e-18
  31    -0.0029133743002101
  32     0.002913077840712
  33    -0.002913077840351
  34     0.002913374299312
  35    -0.0029130778396978
  36    0.0029130778399617
 Sym= A
 Ene=     -1.08848475
 Spin= Alpha
 Occup=    2.00000
   1     -0.10465410317953
   2      0.26517941969865
   3     -0.06137235841579
   4    -2.9688421741017e-15
   5    -7.749307606456e-16
   6     -0.10465443247461
   7      0.26518008484487
   8     -0.03068649555959
   9    -0.053149858242812
  10    -2.0069579088524e-16
  11     -0.10465443247462
  12      0.26518008484491
  13     0.030686495559582
  14    -0.053149858242825
  15    -5.750993119609e-17
  16     -0.10465410317955
  17      0.26517941969872
  18     0.061372358415794
  19    -3.1837025343151e-15
  20    -1.8980620593691e-17
  21     -0.10465443247463
  22      0.26518008484493
  23     0.030686495559583
  24      0.05314985824283
  25    4.3045024221755e-18
  26     -0.10465443247462
  27       0.2651800848449
  28    -0.030686495559599
  29     0.053149858242814
  30    -1.6591587450799e-16
  31     0.047445649402345
  32      0.04744620759674
  33     0.047446207596748
  34     0.047445649402358
  35     0.047446207596754
  36     0.047446207596746
 Sym= A
 Ene=   -0.9540460364
 Spin= Alpha
 Occup=    2.00000
   1      3.1507549431e-11
   2    -8.5096300939262e-11
   3    5.7677569063398e-12
   4      0.12992252154611
   5    -2.0361619605124e-16
   6     -0.12674331962742
   7       0.3423063048368
   8    -0.067862557876225
   9     0.012381765359797
  10    -9.2165570640959e-16
  11     -0.12674331965894
  12      0.34230630492192
  13     0.067862557837147
  14     0.012381765330574
  15    -4.7603412193487e-16
  16    -3.1520078665363e-11
  17    8.5132048604932e-11
  18    5.7715195046239e-12
  19      0.12992252154612
  20    4.2806017773445e-16
  21      0.12674331962742
  22     -0.34230630483681
  23    -0.067862557876225
  24     0.012381765359807
  25    1.3134020362388e-16
  26      0.12674331965893
  27      -0.3423063049219
  28     0.067862557837153
  29     0.012381765330582
  30    3.8682514404978e-17
  31    -2.3560598115445e-11
  32     0.094779298041153
  33     0.094779298064727
  34    2.356911738307e-11
  35    -0.094779298041161
  36    -0.094779298064719
 Sym= A
 Ene=   -0.9540447232
 Spin= Alpha
 Occup=    2.00000
   1     -0.14635041274837
   2      0.39526148515442
   3    -0.026798747007387
   4    2.7974189730154e-11
   5    -1.499111764914e-16
   6    -0.073175335025564
   7       0.1976310150701
   8      0.09074266780131
   9    -0.067862201406358
  10    1.9338105648382e-16
  11     0.073175334970961
  12     -0.19763101492263
  13      0.09074266783056
  14      0.06786220141169
  15    9.0602540989801e-17
  16      0.14635041274836
  17      -0.3952614851544
  18    -0.026798747007368
  19    2.7979854188746e-11
  20    5.0358516463356e-17
  21     0.073175335025545
  22     -0.19763101507005
  23     0.090742667801339
  24    -0.067862201406366
  25    -6.9919591044705e-17
  26    -0.073175334970983
  27      0.19763101492269
  28     0.090742667830542
  29     0.067862201411693
  30    -7.3527408019073e-17
  31      0.10944126935137
  32     0.054721247178219
  33    -0.054721247137389
  34     -0.10944126935137
  35     -0.05472124717821
  36     0.054721247137405
 Sym= A
 Ene=   -0.7668252703
 Spin= Alpha
 Occup=    2.00000
   1    2.6206464556852e-10
   2    -7.7236518093177e-10
   3    -1.9476451048305e-10
   4      0.22971557228639
   5    7.1500943594408e-16
   6    -0.099008101976023
   7      0.29179921880776
   8      0.13626138773924
   9    0.0062955210130584
  10    -5.2582296074041e-16
  11     0.099008101713951
  12     -0.29179921803538
  13      0.13626138843175
  14    -0.0062955203883514
  15    -6.5871913071894e-16
  16    2.6206942722755e-10
  17    -7.7237975877424e-10
  18    1.9476720016538e-10
  19      -0.2297155722864
  20    -2.5512591214242e-16
  21    -0.099008101976017
  22      0.29179921880774
  23     -0.13626138773927
  24    -0.0062955210130621
  25    4.7860063941872e-16
  26     0.099008101713956
  27     -0.29179921803539
  28     -0.13626138843173
  29     0.006295520388358
  30    -1.4875692894634e-16
  31    -4.1034150400716e-10
  32      0.15502906174203
  33     -0.15502906133168
  34    -4.1034882483524e-10
  35      0.15502906174203
  36     -0.15502906133169
 Sym= A
 Ene=   -0.7668246758
 Spin= Alpha
 Occup=    2.00000
   1     -0.11432485114686
   2      0.33694154957924
   3     0.084963966738902
   4    5.2656816866275e-10
   5    7.5608651815007e-16
   6      0.05716234336012
   7     -0.16847025568233
   8       0.1510455029491
   9      -0.1362625200488
  10    3.015644571353e-16
  11     0.057162343814041
  12     -0.16847025702013
  13     -0.15104550232438
  14     -0.13626252007767
  15    -1.8866371074755e-17
  16     -0.11432485114685
  17      0.33694154957922
  18    -0.084963966738914
  19    -5.2658936782533e-10
  20    -2.230277612261e-17
  21     0.057162343360124
  22     -0.16847025568234
  23     -0.15104550294909
  24      0.13626252004882
  25    1.2805822104782e-16
  26     0.057162343814026
  27     -0.16847025702009
  28       0.1510455023244
  29      0.13626252007767
  30    3.4511539364678e-16
  31      0.17901046465996
  32    -0.089506375969584
  33    -0.089506376680351
  34      0.17901046465996
  35    -0.089506375969599
  36    -0.089506376680328
 Sym= A
 Ene=   -0.6617894064
 Spin= Alpha
 Occup=    2.00000
   1    0.0086776787633105
   2    -0.035273561851751
   3     -0.23451001121541
   4    -9.1313610218314e-15
   5    4.8209842599038e-16
   6     0.008676855322006
   7    -0.035270936386118
   8     -0.11725736853662
   9     -0.20309126579804
  10    3.5490488636523e-15
  11    0.0086768553220055
  12    -0.035270936386119
  13      0.11725736853662
  14     -0.20309126579809
  15    -8.3524454925306e-17
  16    0.0086776787633026
  17     -0.03527356185173
  18      0.23451001121545
  19    3.6175475035301e-15
  20    3.1413635230574e-15
  21    0.0086768553220043
  22    -0.035270936386114
  23      0.11725736853665
  24      0.20309126579812
  25    2.2462634623038e-16
  26    0.0086768553220017
  27    -0.035270936386107
  28     -0.11725736853663
  29      0.20309126579808
  30    3.3606143118447e-15
  31     -0.17570119284943
  32      -0.1757009263268
  33     -0.17570092632683
  34     -0.17570119284945
  35     -0.17570092632685
  36     -0.17570092632683
 Sym= A
 Ene=   -0.5956142449
 Spin= Alpha
 Occup=    2.00000
   1     0.065384212817257
   2     -0.21903326425809
   3     -0.16376711991625
   4    1.2256604497913e-15
   5    -1.3377371849877e-15
   6     -0.06538331480675
   7      0.21902999097404
   8     0.081886476159667
   9      0.14183385001426
  10    -1.0885542685985e-15
  11     0.065383314806745
  12     -0.21902999097402
  13     0.081886476159713
  14     -0.14183385001424
  15    -1.448195426743e-16
  16    -0.065384212817249
  17      0.21903326425807
  18     -0.16376711991628
  19    -1.7795982011388e-14
  20    -9.2116054977008e-16
  21     0.065383314806743
  22     -0.21902999097402
  23     0.081886476159686
  24      0.14183385001426
  25    -2.7092163510885e-16
  26    -0.065383314806747
  27      0.21902999097403
  28     0.081886476159688
  29     -0.14183385001428
  30    -1.4133654454512e-15
  31     -0.23159501690045
  32      0.23160039734402
  33     -0.23160039734403
  34      0.23159501690047
  35     -0.23160039734402
  36      0.23160039734404
 Sym= A
 Ene=   -0.5522566652
 Spin= Alpha
 Occup=    2.00000
   1    -8.1431948412398e-17
   2    2.7571915119296e-15
   3    1.8962328582159e-14
   4      0.33211745641344
   5    3.9146456621276e-15
   6    3.4122877552718e-07
   7    -8.6540683248768e-07
   8      0.28762633694227
   9      -0.1660563709643
  10    1.5125901207305e-15
  11    3.4122878104402e-07
  12    -8.6540684643132e-07
  13     -0.28762633694227
  14     -0.16605637096436
  15    1.2751103530309e-15
  16    -5.3300023383887e-15
  17    1.5539277016315e-14
  18    1.3492240524201e-15
  19      0.33211745641345
  20    1.0320785028059e-15
  21    -3.4122877710777e-07
  22    8.6540683590031e-07
  23      0.28762633694229
  24     -0.16605637096433
  25    1.2443245434916e-15
  26    -3.4122877499057e-07
  27    8.654068290948e-07
  28     -0.28762633694227
  29     -0.16605637096433
  30    2.9404554258168e-15
  31    1.4969061607908e-14
  32    3.7194831512946e-06
  33    3.7194830969023e-06
  34    7.5696792151251e-15
  35    -3.719483132498e-06
  36    -3.7194831397335e-06
 Sym= A
 Ene=   -0.5340321734
 Spin= Alpha
 Occup=    2.00000
   1    3.6241930330277e-16
   2    -3.347999007263e-15
   3    -1.7799170883654e-14
   4     -0.10231858664648
   5    1.210097436723e-15
   6     0.023210610794351
   7    -0.073817423034112
   8      0.20402248940134
   9      0.25107250171884
  10    6.6137757447332e-16
  11     0.023210610794363
  12     -0.07381742303415
  13     -0.20402248940133
  14      0.25107250171893
  15    2.6478803116677e-15
  16    2.1483527702056e-15
  17    -5.5052049275599e-15
  18    -5.4636421714038e-14
  19     -0.10231858664653
  20    2.5365569898597e-15
  21    -0.023210610794357
  22     0.073817423034132
  23      0.20402248940134
  24      0.25107250171888
  25    3.3952224517038e-15
  26    -0.023210610794359
  27     0.073817423034138
  28     -0.20402248940134
  29      0.25107250171885
  30    1.7266719896768e-15
  31    -2.1206393772345e-14
  32      0.24500661445733
  33      0.24500661445738
  34    4.1089787721438e-14
  35     -0.24500661445734
  36     -0.24500661445733
 Sym= A
 Ene=   -0.5340302587
 Spin= Alpha
 Occup=    2.00000
   1     0.026800688060028
   2     -0.08523486310701
   3      0.36886721348704
   4    -1.554327409154e-14
   5    -1.3672102481808e-15
   6      0.01340158137262
   7    -0.042622022475732
   8      0.01547984754361
   9      0.20402446754853
  10    -5.6090570618379e-16
  11    -0.013401581372616
  12     0.042622022475724
  13     0.015479847543543
  14     -0.20402446754845
  15    -8.0439199603016e-16
  16    -0.026800688060027
  17     0.085234863107006
  18      0.36886721348704
  19    -3.2483451678006e-14
  20    1.1069941878516e-15
  21    -0.013401581372621
  22     0.042622022475737
  23     0.015479847543554
  24      0.20402446754853
  25    2.2830232277519e-16
  26     0.013401581372616
  27    -0.042622022475721
  28     0.015479847543595
  29      -0.2040244675485
  30    7.665625749128e-16
  31      0.28291330636791
  32      0.14145151969091
  33     -0.14145151969082
  34     -0.28291330636792
  35     -0.14145151969087
  36      0.14145151969087
 Sym= A
 Ene=   -0.4549021119
 Spin= Alpha
 Occup=    2.00000
   1    2.0865552186266e-17
   2    -2.3090391633777e-16
   3    -2.9651528961572e-15
   4    -4.1309384969679e-16
   5      0.33452148170464
   6    -7.0348318265547e-16
   7    2.8179378650198e-15
   8    4.0085805835853e-15
   9    -6.1226229892025e-16
  10      0.33452220655831
  11    2.3192565304688e-16
  12    -1.2005935235656e-15
  13    -2.6374182750234e-15
  14    7.8409695584044e-16
  15      0.33452220655832
  16    -5.0812173365913e-16
  17    2.2361482927496e-15
  18    3.5892069820444e-15
  19    -2.2673206718724e-15
  20      0.33452148170468
  21    2.880483685655e-16
  22    -1.9908150642467e-15
  23    -8.8646166228199e-15
  24    1.0061684297684e-15
  25      0.33452220655836
  26    -5.122875054537e-17
  27    7.9885902697099e-16
  28    9.2163133295738e-15
  29    -2.7594600641198e-15
  30      0.33452220655834
  31    -6.2900724280726e-15
  32    1.3251601415495e-15
  33    3.6560863277937e-15
  34    -4.8651585200547e-15
  35    4.8997927809355e-15
  36    6.3327312675639e-15
 Sym= A
 Ene=   -0.4330542774
 Spin= Alpha
 Occup=    2.00000
   1    -5.2829435789899e-16
   2    8.1018989905256e-15
   3    8.8430940167888e-14
   4      0.33437871943723
   5    -2.182337529071e-15
   6    -0.0070287217727131
   7     0.016186981755816
   8     0.022821587344687
   9      -0.2948499816742
  10    1.0738224424341e-15
  11    0.0070287217727087
  12    -0.016186981755809
  13     0.022821587344931
  14      0.29484998167417
  15    -7.5291287526557e-17
  16    6.0988864877255e-15
  17    -1.673418105888e-14
  18    -1.0723780738819e-13
  19     -0.33437871943717
  20    -1.3996655283548e-15
  21    -0.0070287217727125
  22     0.016186981755817
  23      -0.0228215873447
  24      0.29484998167414
  25    -1.840195352846e-15
  26    0.0070287217727126
  27     -0.01618698175582
  28    -0.022821587344935
  29      -0.2948499816742
  30    -2.0401266132211e-15
  31    1.0508048616679e-13
  32     -0.25732303416575
  33      0.25732303416559
  34    1.0674472321341e-13
  35     -0.25732303416568
  36      0.25732303416561
 Sym= A
 Ene=   -0.4330542022
 Spin= Alpha
 Occup=    2.00000
   1    -0.0081157454889741
   2     0.018689432531106
   3     -0.28167448633873
   4    1.2913145194746e-13
   5    -5.4744272455807e-15
   6    0.0040579710777685
   7    -0.0093450477642036
   8      0.32120137127954
   9    -0.022822480863874
  10    -5.0953485132112e-15
  11     0.004057971077781
  12    -0.0093450477642409
  13     -0.32120137127952
  14    -0.022822480863645
  15    -6.6236349481401e-15
  16    -0.0081157454889735
  17     0.018689432531106
  18      0.28167448633868
  19    -1.1643998187419e-13
  20    -6.5470083395447e-15
  21    0.0040579710777753
  22    -0.0093450477642287
  23     -0.32120137127952
  24     0.022822480863856
  25    -7.1570433207688e-15
  26    0.0040579710777726
  27    -0.0093450477642107
  28       0.3212013712795
  29     0.022822480863657
  30    -5.7682819567846e-15
  31     -0.29713262939262
  32      0.14856536502909
  33      0.14856536502928
  34     -0.29713262939258
  35      0.14856536502909
  36      0.14856536502928
 Sym= A
 Ene=   -0.2791660822
 Spin= Alpha
 Occup=    2.00000
   1    6.0387901090459e-17
   2    -2.4716336737002e-16
   3    1.203163533015e-15
   4    -1.4138247455962e-15
   5    1.2714873607635e-09
   6    -1.2948466932283e-16
   7    7.0516783230454e-16
   8    3.3631585586748e-16
   9    4.3472233057407e-16
  10      0.46054968723006
  11    -2.1448827552316e-16
  12    1.413001950908e-16
  13    -3.4489068906706e-16
  14    -9.8089264219307e-16
  15      0.46054968595858
  16    -2.5753918008084e-17
  17    8.4499933776219e-17
  18    1.1425949007541e-16
  19    1.041514736731e-15
  20    -1.2714507377047e-09
  21    -1.1069864413736e-17
  22    2.2758184206218e-18
  23    3.2960378225961e-16
  24    -9.633849857969e-17
  25     -0.46054968723004
  26    5.684129996175e-17
  27    -8.000523423925e-17
  28    -7.1164903552507e-16
  29    1.1709514346375e-16
  30     -0.46054968595856
  31    1.8042148259745e-16
  32    1.3449223213165e-15
  33    -5.4452611147545e-16
  34    -4.5284070202292e-16
  35    2.9340303344642e-16
  36    -1.7211532797068e-15
 Sym= A
 Ene=   -0.2791648485
 Spin= Alpha
 Occup=    2.00000
   1    1.2517205857057e-16
   2    -4.8783736198059e-16
   3    1.3113496968697e-15
   4    -1.8742505982963e-15
   5      0.53179735401488
   6    -1.2104813245763e-16
   7    1.0562078356243e-15
   8    -7.1460581957397e-16
   9    9.7665891895405e-16
  10      0.26589861007371
  11    -2.1411869027424e-16
  12    7.2107147368768e-16
  13    3.5391669898743e-16
  14    8.0561358269861e-16
  15     -0.26589861227593
  16    -4.638282080753e-17
  17    4.2770076344974e-16
  18    -1.2278656009661e-16
  19    -1.7089886016101e-15
  20     -0.53179735401487
  21    9.7268344635923e-17
  22    -5.8286952537426e-16
  23    8.5264712919839e-16
  24    9.6345474972985e-16
  25     -0.26589861007369
  26    -3.1114330380573e-16
  27    5.7667614229854e-16
  28    -1.3058741974154e-16
  29    -7.0955526706745e-17
  30      0.26589861227597
  31    3.0275580240524e-16
  32    5.6478008321039e-16
  33    -1.8185298205704e-16
  34    5.5635070000658e-17
  35    -9.311041020411e-16
  36    -2.8721072448139e-16
 Sym= A
 Ene=    0.2680614191
 Spin= Alpha
 Occup=    0.00000
   1    3.0917657762053e-17
   2    -2.0623443044742e-16
   3    -2.5133876345067e-16
   4    1.9169597930905e-16
   5       0.6577635977122
   6    8.8096292653398e-17
   7    -4.253889270471e-16
   8    -1.3986054396426e-16
   9    3.296666465608e-16
  10     -0.32888132183464
  11    9.7601041214198e-17
  12    -3.1009081504057e-16
  13    7.0676811027691e-16
  14    -3.4032499184294e-16
  15     -0.32888131597033
  16    5.3730936227874e-17
  17    1.6711239476922e-16
  18    3.4834625871935e-16
  19    -1.3295136578001e-15
  20      0.65776359771221
  21    -8.2099899183359e-17
  22    3.3980330896099e-16
  23    1.6503667157308e-16
  24    -6.5749498061759e-16
  25     -0.32888132183466
  26    -1.8623982860969e-16
  27    3.4075239280667e-16
  28    4.7684522176002e-16
  29    2.1269926480798e-16
  30      -0.3288813159703
  31    2.392590894184e-16
  32    -2.6266864987567e-16
  33    1.354421917221e-15
  34    4.6150506305123e-16
  35    -1.4488439550906e-15
  36    5.1725910510545e-16
 Sym= A
 Ene=    0.2680620144
 Spin= Alpha
 Occup=    0.00000
   1    -3.6557542938584e-17
   2    1.906220547034e-16
   3    -6.1646151068176e-16
   4    -3.5441367246355e-16
   5    -3.3857976782606e-09
   6    -7.6667029829761e-17
   7    3.2368511964875e-16
   8    -2.5173320207517e-16
   9    -9.5374944552887e-17
  10      -0.5696400387797
  11    2.0520229759418e-16
  12    -4.1478984545969e-16
  13    6.9119366289844e-17
  14    -1.497595717073e-16
  15      0.56964004216548
  16    2.8888260970416e-17
  17    4.2207807477108e-17
  18    5.6887985739304e-16
  19    -1.2739997588313e-15
  20    -3.3857441954343e-09
  21    -4.4969783907457e-17
  22    -5.7586458974805e-17
  23    8.9164737089976e-16
  24    -7.6305308453815e-17
  25     -0.56964003877974
  26    3.1717233646031e-16
  27    -1.7677149307083e-15
  28    3.5055548735804e-16
  29    2.3298307838345e-16
  30      0.56964004216551
  31    1.9326770028748e-16
  32    -1.3575224111668e-16
  33    5.1277142085122e-16
  34    5.027458696814e-16
  35    1.8393156037523e-16
  36    9.4500907817626e-16
 Sym= A
 Ene=    0.5020445789
 Spin= Alpha
 Occup=    0.00000
   1    -2.9743097841563e-17
   2    6.6374673339514e-16
   3    1.3760506905389e-14
   4    1.6204080270939e-15
   5     -0.52166192935427
   6    -1.4889346589896e-15
   7    7.9778538960995e-15
   8    3.2467178083124e-15
   9    2.4844333258034e-15
  10      0.52166242012383
  11    3.5642610515755e-15
  12    -2.0640563661049e-14
  13    1.0738455302676e-14
  14    -2.7196876063953e-15
  15     -0.52166242012382
  16    -2.709363892366e-15
  17    1.6294718663756e-14
  18    3.5563755850541e-15
  19    2.1352025950439e-15
  20      0.52166192935424
  21    2.8428599824651e-15
  22    -1.991943660174e-14
  23    8.878763462385e-15
  24    5.4948154297627e-15
  25     -0.52166242012377
  26    -1.5572515092383e-15
  27    1.1377719182192e-14
  28    2.3599537694092e-15
  29    -1.9937330482784e-15
  30      0.52166242012379
  31    -1.1758141510352e-14
  32    -6.8824319580422e-15
  33    1.8995281541468e-14
  34    -1.0415515657604e-15
  35    1.9590762916292e-14
  36    -8.4892295805886e-15
 Sym= A
 Ene=    0.5812089022
 Spin= Alpha
 Occup=    0.00000
   1     0.052672336647064
   2     -0.33497895879431
   3     -0.31641571874762
   4    5.8615789853457e-15
   5    1.3555338606137e-15
   6      0.05266961092834
   7     -0.33496377824041
   8     -0.15820313408545
   9     -0.27402130548245
  10    -3.980728643049e-16
  11     0.052669610928365
  12     -0.33496377824057
  13      0.15820313408552
  14     -0.27402130548257
  15    9.1418900145577e-16
  16      0.05267233664708
  17     -0.33497895879442
  18       0.3164157187478
  19    2.3251359171374e-14
  20    -1.5051979557989e-15
  21     0.052669610928351
  22     -0.33496377824048
  23      0.15820313408556
  24      0.27402130548256
  25    1.615629630883e-15
  26     0.052669610928358
  27     -0.33496377824052
  28     -0.15820313408542
  29      0.27402130548252
  30    -1.5495325948847e-15
  31      0.51217264960883
  32      0.51216202720127
  33      0.51216202720148
  34      0.51217264960907
  35      0.51216202720146
  36      0.51216202720138
 Sym= A
 Ene=    0.6502196853
 Spin= Alpha
 Occup=    0.00000
   1     0.029911701243237
   2     -0.19669093437247
   3     -0.55550235339137
   4    1.373486299771e-09
   5    -8.8356805507989e-15
   6     0.014952349888313
   7    -0.098324477794332
   8     -0.38329108871325
   9    -0.099419720945177
  10    9.4627879186041e-15
  11     -0.01495235010662
  12     0.098324479229882
  13     -0.38329108955121
  14     0.099419725143404
  15    -8.9664519647536e-15
  16    -0.029911701243203
  17      0.19669093437225
  18      -0.5555023533913
  19    1.3734577412335e-09
  20    9.7908997910247e-15
  21    -0.014952349888294
  22     0.098324477794209
  23     -0.38329108871323
  24    -0.099419720945045
  25    -9.3269879683604e-15
  26     0.014952350106622
  27     -0.09832447922989
  28     -0.38329108955126
  29     0.099419725143545
  30    9.6950791993925e-15
  31      0.65388511834634
  32      0.32692773590833
  33     -0.32692774068113
  34     -0.65388511834615
  35     -0.32692773590813
  36      0.32692774068129
 Sym= A
 Ene=    0.6502209008
 Spin= Alpha
 Occup=    0.00000
   1    -1.260525401571e-10
   2    8.2888212288532e-10
   3    2.3411643529665e-09
   4      0.32589810157677
   5    7.1713801205524e-16
   6    -0.025901672688586
   7       0.1703244806603
   8     0.099420912686623
   9      0.49809776226539
  10    -3.8200020872342e-16
  11     -0.02590167256257
  12      0.17032447983163
  13    -0.099420909455944
  14      0.49809776142757
  15    -6.4688469190484e-17
  16    1.260605002386e-10
  17    -8.2893233181466e-10
  18    2.3410691061065e-09
  19       0.3258981015768
  20    1.6959169357556e-16
  21     0.025901672688585
  22     -0.17032448066029
  23     0.099420912686635
  24      0.49809776226553
  25    -3.6744726983484e-16
  26     0.025901672562552
  27     -0.17032447983152
  28    -0.099420909455881
  29      0.49809776142749
  30    -6.3300842908242e-16
  31    -2.7557578852056e-09
  32     -0.56627200565011
  33     -0.56627200289467
  34    2.7556976928383e-09
  35      0.56627200565021
  36      0.56627200289452
 Sym= A
 Ene=    0.7205020662
 Spin= Alpha
 Occup=    0.00000
   1      0.12040891141828
   2     -0.75498531277184
   3    -0.061704461089622
   4    -3.0744223123658e-14
   5    8.2313697942281e-15
   6      -0.1204088571269
   7      0.75498603616071
   8     0.030871553838637
   9     0.053446816416964
  10    -9.2429825278781e-15
  11      0.12040885712687
  12     -0.75498603616047
  13     0.030871553838492
  14     -0.05344681641704
  15    8.2478656525175e-15
  16     -0.12040891141821
  17      0.75498531277141
  18    -0.061704461089662
  19    2.4254812319378e-14
  20    -8.9112955962618e-15
  21      0.12040885712685
  22     -0.75498603616039
  23     0.030871553838539
  24     0.053446816417064
  25    8.2097560713446e-15
  26     -0.12040885712689
  27      0.75498603616059
  28     0.030871553838658
  29    -0.053446816416965
  30    -8.8320315930643e-15
  31      0.44875107754906
  32     -0.44877057267518
  33      0.44877057267505
  34     -0.44875107754889
  35      0.44877057267505
  36     -0.44877057267513
 Sym= A
 Ene=    0.7331780375
 Spin= Alpha
 Occup=    0.00000
   1     -0.16290413860453
   2       1.0522945763389
   3    -0.043600421344426
   4    1.2660214610024e-09
   5    4.9923204077207e-15
   6     0.081453051799126
   7     -0.52615438346461
   8     -0.31263193690707
   9      0.20566428221462
  10    -5.3116337518234e-15
  11     0.081453050971056
  12     -0.52615437811559
  13      0.31263193811433
  14      0.20566428265579
  15    4.8357907463523e-15
  16      -0.1629041386046
  17       1.0522945763393
  18     0.043600421344342
  19    -1.2660477054231e-09
  20    -5.4444112959076e-15
  21     0.081453051799173
  22     -0.52615438346491
  23      0.31263193690716
  24     -0.20566428221465
  25    5.1214475012859e-15
  26      0.08145305097102
  27     -0.52615437811537
  28     -0.31263193811429
  29     -0.20566428265572
  30    -5.5910553732747e-15
  31     -0.46674290715217
  32      0.23338193230588
  33      0.23338192993329
  34     -0.46674290715245
  35      0.23338193230605
  36       0.2333819299332
 Sym= A
 Ene=    0.7331808333
 Spin= Alpha
 Occup=    0.00000
   1    4.7811774417265e-10
   2    -3.0884446948273e-09
   3    1.2795505963505e-10
   4      0.43137261287407
   5    7.2662473877818e-16
   6      0.14107978468175
   7     -0.91132062370194
   8      0.20566683444476
   9    -0.075146028621508
  10    -8.2227097322417e-16
  11     -0.14107978515986
  12       0.9113206267903
  13       0.2056668326097
  14     0.075146027414229
  15    8.5230405869265e-16
  16    4.7810625533826e-10
  17    -3.0883693343758e-09
  18    -1.2792007817159e-10
  19     -0.43137261287409
  20    -1.3942763048112e-16
  21      0.14107978468176
  22       -0.911320623702
  23     -0.20566683444475
  24     0.075146028621464
  25    2.0831706896006e-16
  26     -0.14107978515987
  27      0.91132062679041
  28     -0.20566683260967
  29    -0.075146027414271
  30    -8.7624503232743e-17
  31    1.3698839975921e-09
  32      0.40421863505949
  33     -0.40421863642929
  34    1.3698791274427e-09
  35       0.4042186350595
  36      -0.4042186364294
 Sym= A
 Ene=    0.8844438966
 Spin= Alpha
 Occup=    0.00000
   1     0.027089233536592
   2     -0.19537934024918
   3      0.80844027375642
   4    3.3177363552711e-10
   5    3.2824608578016e-15
   6    -0.013544143907399
   7     0.097685354072963
   8    -0.033488116157449
   9     -0.44742313476863
  10    -4.1826750550418e-15
  11    -0.013544143976504
  12     0.097685354571384
  13     0.033488117475605
  14     -0.44742313639086
  15    3.1130375228639e-15
  16     0.027089233536731
  17     -0.19537934025017
  18     -0.80844027375641
  19    -3.3100407723844e-10
  20    -3.5141879168563e-15
  21     -0.01354414390743
  22     0.097685354073191
  23      0.03348811615636
  24      0.44742313476935
  25    3.1151764592366e-15
  26    -0.013544143976634
  27     0.097685354572314
  28    -0.033488117475923
  29      0.44742313639035
  30    -3.5554807755623e-15
  31     -0.55902514198033
  32      0.27951827306875
  33      0.27951827449609
  34     -0.55902514197994
  35      0.27951827306871
  36      0.27951827449553
 Sym= A
 Ene=     0.884448362
 Spin= Alpha
 Occup=    0.00000
   1    3.9916703109108e-11
   2    -2.8789562099906e-10
   3    1.1914877641883e-09
   4     -0.22483564588471
   5    3.7639647692777e-16
   6     -0.02345973735494
   7      0.16920169058569
   8      -0.4474215748886
   9     -0.55012574816332
  10    -6.9642517388399e-16
  11     0.023459737315007
  12     -0.16920169029768
  13     -0.44742157478993
  14      0.55012574684432
  15    -3.2638181967538e-16
  16    3.9944716196293e-11
  17    -2.8809202964479e-10
  18    -1.1915526253235e-09
  19      0.22483564588455
  20    6.9426867988209e-16
  21    -0.023459737354936
  22      0.16920169058566
  23      0.44742157488855
  24      0.55012574816334
  25    -3.2050695873545e-16
  26     0.023459737315016
  27     -0.16920169029775
  28      0.44742157478982
  29     -0.55012574684456
  30    -2.7048805042757e-16
  31    -8.2391882313352e-10
  32      0.48413497062539
  33     -0.48413496980138
  34    -8.2388683027459e-10
  35      0.48413497062537
  36     -0.48413496980148
 Sym= A
 Ene=    0.8947019073
 Spin= Alpha
 Occup=    0.00000
   1    -0.095826804167694
   2      0.68617814382973
   3     0.075751795373722
   4    1.3565094877054e-08
   5    1.0018324753409e-15
   6    -0.047914688005067
   7      0.34309880278536
   8     -0.60678308533618
   9      0.39406661439003
  10    -1.334440928441e-15
  11     0.047914690703792
  12     -0.34309882210989
  13     -0.60678307252174
  14     -0.39406660945452
  15    8.2277958907188e-16
  16     0.095826804167632
  17      -0.6861781438293
  18     0.075751795374751
  19    1.3565040919443e-08
  20    -7.9620641784282e-16
  21     0.047914688005098
  22     -0.34309880278558
  23     -0.60678308533625
  24       0.3940666143893
  25    6.5282535033625e-16
  26    -0.047914690703772
  27      0.34309882210974
  28      -0.6067830725218
  29     -0.39406660945505
  30    -8.8768906991664e-16
  31      -0.3094947645628
  32     -0.15475475814782
  33      0.15475476686374
  34      0.30949476456342
  35      0.15475475814738
  36     -0.15475476686402
 Sym= A
 Ene=    0.8947025525
 Spin= Alpha
 Occup=    0.00000
   1    1.5580630633613e-09
   2    -1.1156678198502e-08
   3    -1.2320477348017e-09
   4      0.83429418347188
   5    1.3964535101155e-15
   6     0.082989397443873
   7      -0.5942550652743
   8     -0.39406482768987
   9      0.15175413725265
  10    -9.4153991702234e-16
  11     0.082989395885761
  12     -0.59425505411724
  13      0.39406484742163
  14      0.15175415006725
  15    9.8456818830216e-16
  16    -1.5580972041817e-09
  17    1.1156919124675e-08
  18    -1.2312769865882e-09
  19      0.83429418347197
  20    -1.3109696903618e-15
  21     -0.08298939744386
  22       0.5942550652742
  23     -0.39406482768988
  24       0.1517541372523
  25    4.3256675564163e-16
  26     -0.08298939588574
  27       0.5942550541171
  28      0.39406484742165
  29      0.15175415006672
  30    -5.0103591208939e-16
  31    5.0324226882753e-09
  32      0.26804098860643
  33      0.26804098357397
  34    -5.0319157396944e-09
  35     -0.26804098860663
  36     -0.26804098357428
 Sym= A
 Ene=     1.083137182
 Spin= Alpha
 Occup=    0.00000
   1    6.4736022850364e-15
   2    -4.7653682576426e-14
   3    6.1402256576404e-14
   4      0.75478761366758
   5    -5.7648928260269e-16
   6    -2.033281874746e-07
   7    2.3326718661632e-06
   8     -0.65366791618164
   9      0.37739330278296
  10    1.2669290267056e-15
  11    2.0332819045009e-07
  12    -2.3326718922376e-06
  13     -0.65366791618162
  14     -0.37739330278291
  15    -3.3698823102786e-16
  16    -8.1533031853877e-15
  17    5.8064777128419e-14
  18    6.8984806725599e-14
  19     -0.75478761366751
  20    1.4081337727047e-16
  21    -2.0332818195673e-07
  22    2.3326718224252e-06
  23      0.65366791618156
  24     -0.37739330278305
  25    -6.6616382730162e-17
  26    2.0332817392831e-07
  27    -2.3326717692454e-06
  28       0.6536679161816
  29      0.37739330278306
  30    1.9701824793285e-16
  31    -2.5026366717415e-14
  32    1.4631736561041e-06
  33    -1.4631736784883e-06
  34    2.2911334642032e-14
  35    1.4631735989104e-06
  36    -1.4631736254904e-06
 Sym= A
 Ene=     1.147766069
 Spin= Alpha
 Occup=    0.00000
   1     0.060590271263578
   2     -0.45666545989058
   3      0.67397576448045
   4    -9.8251194310429e-14
   5    -1.2288497629966e-16
   6     -0.06059049228004
   7      0.45666707898493
   8     -0.33699491865533
   9     -0.58368259294444
  10    -2.0903375636098e-16
  11     0.060590492280038
  12     -0.45666707898492
  13     -0.33699491865532
  14      0.58368259294433
  15    8.626981322814e-17
  16    -0.060590271263572
  17      0.45666545989053
  18      0.67397576448031
  19    7.5745946371835e-14
  20    -1.3085497304826e-17
  21     0.060590492280034
  22     -0.45666707898489
  23     -0.33699491865539
  24     -0.58368259294422
  25    3.9283688069933e-17
  26    -0.060590492280035
  27       0.4566670789849
  28      -0.3369949186554
  29      0.58368259294429
  30    -5.194898568305e-17
  31     -0.28123519606302
  32      0.28124007265287
  33     -0.28124007265279
  34      0.28123519606293
  35     -0.28124007265276
  36       0.2812400726528
