[Molden Format]
made by pyscf v[2.12.1]
[Atoms] (AU)
O   1   8     0.00000000000000     0.00000000000000    -2.19208230449547
C   2   6     0.00000000000000     0.00000000000000     0.00000000000000
O   3   8     0.00000000000000     0.00000000000000     2.19208230449547
[GTO]
1 0
 s    6 1.00
             5484.6717   0.001831099805527
             825.23495   0.013950098518422
             188.04696    0.06844509273075
               52.9645    0.23271427528445
              16.89757    0.47019295006289
             5.7996353    0.35852086192309
 s    3 1.00
             15.539616   -0.11077750382508
             3.5999336   -0.14802630511126
             1.0137618     1.1307670390447
 s    1 1.00
             0.2700058                   1
 p    3 1.00
             15.539616   0.070874299543311
             3.5999336    0.33975279781076
             1.0137618    0.72715859531445
 p    1 1.00
             0.2700058                   1
 d    1 1.00
                   0.8                   1

2 0
 s    6 1.00
             3047.5249  0.0018347001629433
             457.36951    0.01403730124668
             103.94869   0.068842606114048
             29.210155    0.23218442062076
              9.286663    0.46794134155879
              3.163927    0.36231203217765
 s    3 1.00
             7.8682724   -0.11933240861517
             1.8812885   -0.16085421161283
             0.5442493     1.1434564825515
 s    1 1.00
             0.1687144                   1
 p    3 1.00
             7.8682724   0.068999095584993
             1.8812885    0.31642397975315
             0.5442493    0.74430825237435
 p    1 1.00
             0.1687144                   1
 d    1 1.00
                   0.8                   1

3 0
 s    6 1.00
             5484.6717   0.001831099805527
             825.23495   0.013950098518422
             188.04696    0.06844509273075
               52.9645    0.23271427528445
              16.89757    0.47019295006289
             5.7996353    0.35852086192309
 s    3 1.00
             15.539616   -0.11077750382508
             3.5999336   -0.14802630511126
             1.0137618     1.1307670390447
 s    1 1.00
             0.2700058                   1
 p    3 1.00
             15.539616   0.070874299543311
             3.5999336    0.33975279781076
             1.0137618    0.72715859531445
 p    1 1.00
             0.2700058                   1
 d    1 1.00
                   0.8                   1

[5d]
[7f]
[9g]

[MO]
 Sym= A
 Ene=    -20.65967442
 Spin= Alpha
 Occup=    2.00000
   1      0.70421230828275
   2     0.016832726738077
   3    -0.013260395831251
   4    3.4416632768713e-18
   5    -1.7527265154408e-17
   6     0.001565276728379
   7    -1.5299534615496e-17
   8    4.8249712720572e-17
   9    -0.0032913007527017
  10    0.00010332057063773
  11    -1.0290511611722e-18
  12    4.0674270059937e-19
  13    1.7958421531888e-18
  14    -1.8472703712996e-19
  15    9.9869059564668e-14
  16    -2.1445851622906e-13
  17    2.0412528560924e-12
  18    8.0931588785119e-19
  19    1.0160347006025e-18
  20    7.4560620409949e-05
  21    -1.2666029047124e-18
  22    7.2252168807281e-19
  23    -0.010984038842901
  24    -8.2781987488796e-13
  25    -1.4354831285035e-19
  26    1.9839413680147e-19
  27    -2.3020638963724e-19
  28    2.8982770521681e-19
  29     -0.70421230775042
  30    -0.016832726725751
  31     0.013260395826526
  32    4.2759884151612e-19
  33    2.788580553822e-18
  34    0.0015652767266786
  35    4.5361596721907e-19
  36    -9.5159929712952e-19
  37    -0.0032913007511601
  38    -0.00010332057030497
  39    -5.6223352632033e-19
  40    5.7558568068369e-19
  41    -5.920417941426e-19
  42    -6.8718162946477e-19
 Sym= A
 Ene=    -20.65963179
 Spin= Alpha
 Occup=    2.00000
   1      0.70414475233155
   2     0.016303392555754
   3    -0.0062477865077146
   4    -1.2295720548807e-17
   5    -1.6411050719341e-17
   6    0.0022492322907344
   7    1.616796955531e-17
   8    -1.3882159181791e-17
   9    -0.0020379243307122
  10    0.00044048161524587
  11    1.478986618797e-18
  12    6.6395944629847e-19
  13    1.811675471715e-18
  14    -9.1122974251796e-20
  15    0.00026472092413821
  16    -0.00056831440725475
  17    0.0053979888238671
  18    -1.1458391798672e-18
  19    -1.1569038604822e-18
  20    -2.819736240189e-14
  21    8.0800563290244e-19
  22    -1.9104738697376e-18
  23    4.1517918871978e-12
  24    -0.0021898414394078
  25    1.6142425439945e-19
  26    -3.0846160867835e-19
  27    -9.2993292947321e-20
  28    -1.2834842923606e-19
  29      0.70414475286393
  30     0.016303392568479
  31    -0.0062477865177387
  32    -6.4315273723951e-19
  33    -2.9324067852847e-18
  34    -0.0022492322919177
  35    -2.6642070697704e-19
  36    1.5373446804858e-18
  37    0.0020379243332003
  38    0.00044048161532399
  39    5.3845040174614e-19
  40    -7.5963544404245e-19
  41    6.3384751134266e-19
  42    6.8126733121319e-19
 Sym= A
 Ene=    -11.47156507
 Spin= Alpha
 Occup=    2.00000
   1    -0.00047144108454433
   2    0.00010567495559949
   3    -0.0036787593928737
   4    -1.2327849553285e-16
   5    1.5626145793414e-16
   6    -0.00042828701811543
   7     3.90949269745e-17
   8    1.2252157524049e-17
   9    -0.003138715814654
  10    -0.00087249201222571
  11    -1.9999624653814e-18
  12    2.1106415577129e-18
  13    -1.4834910220433e-19
  14    1.5186858148044e-19
  15      0.99617035150791
  16     0.025085576169662
  17    -0.00020063844207649
  18    9.3395281681987e-18
  19    1.1943675926512e-17
  20    4.503462915501e-16
  21    -6.5148382747014e-19
  22    -1.0549509487507e-17
  23    2.0401383065698e-15
  24    0.0034950450089799
  25    5.9390266387156e-20
  26    -3.8262273276695e-18
  27    -2.914518848239e-19
  28    -7.6036464984999e-19
  29    -0.0004714410845443
  30    0.00010567495560062
  31    -0.0036787593928782
  32    -9.5057177927202e-19
  33    -3.91146384177e-18
  34    0.00042828701811549
  35    -1.19948260417e-18
  36    1.2440295315222e-18
  37    0.0031387158146554
  38    -0.00087249201222618
  39    1.7608698965724e-18
  40    2.6865359827443e-19
  41    1.0379042473593e-19
  42    -3.6310276491974e-19
 Sym= A
 Ene=    -1.532391631
 Spin= Alpha
 Occup=    2.00000
   1     -0.13577693525196
   2      0.29188709264785
   3      0.26687400630848
   4    1.143088656666e-16
   5    -1.249516776037e-16
   6      0.10435971638887
   7    9.687907281058e-17
   8    1.5674730083169e-16
   9     0.047642332702256
  10     0.010008177158365
  11    6.1618697618092e-18
  12    -4.0826971942188e-17
  13    -6.6377803488698e-19
  14    2.5889476021432e-18
  15     -0.15171870463006
  16      0.29289860892549
  17     0.029681040665199
  18    1.3291745819438e-16
  19    2.5426484621038e-17
  20    -8.7256619076796e-15
  21    5.1954567514609e-17
  22    1.4749313781977e-17
  23    -1.4247166461559e-14
  24      0.05181836686653
  25    3.1202342359897e-17
  26    4.4311359174896e-17
  27    -2.4035613788706e-18
  28    5.5365081477664e-18
  29     -0.13577693525195
  30      0.29188709264783
  31      0.26687400630849
  32    2.5455731732077e-16
  33    1.6347163023151e-16
  34     -0.10435971638886
  35    9.6683852152189e-17
  36    5.7834348967738e-17
  37    -0.047642332702259
  38     0.010008177158365
  39    -3.162098582324e-17
  40    -1.6050683455818e-17
  41    2.4384976991213e-18
  42    1.6071585980312e-18
 Sym= A
 Ene=    -1.477485281
 Spin= Alpha
 Occup=    2.00000
   1      0.14798052717722
   2     -0.32315142701903
   3      -0.2925864793887
   4    -3.8629180292161e-17
   5    -1.5809021397774e-16
   6     -0.10666972764793
   7    1.1720318555762e-16
   8    5.7018104225867e-17
   9    -0.028557983866583
  10    -0.011105017600775
  11    1.212016523928e-17
  12    -4.8966207582991e-18
  13    -2.1686710600524e-18
  14    5.2913227456382e-17
  15    -4.2795417609203e-15
  16    2.2185961429984e-15
  17    -8.6558645662088e-15
  18    8.2976384087463e-17
  19    -2.4617139170651e-17
  20      0.32484314053766
  21    2.0704991006285e-17
  22    -1.7496925930234e-17
  23    -0.031285764651797
  24    -2.2805140484974e-15
  25    4.0044363401315e-17
  26    5.3720998945746e-17
  27    9.970523834445e-18
  28    -1.1988151115568e-17
  29     -0.14798052717723
  30      0.32315142701904
  31      0.29258647938873
  32    2.5971508634141e-16
  33    1.6686218815029e-16
  34     -0.10666972764794
  35    9.9471973435028e-17
  36    7.6525706409251e-17
  37    -0.028557983866594
  38      0.01110501760078
  39    -2.7647631815422e-17
  40    -1.7385382145724e-17
  41    6.4943549588501e-19
  42    5.0261558718734e-18
 Sym= A
 Ene=   -0.7945880508
 Spin= Alpha
 Occup=    2.00000
   1     0.086381114021498
   2     -0.20900502674978
   3     -0.30597658690088
   4    -2.3349002378713e-15
   5    1.548852553477e-15
   6      0.33195889905715
   7    -1.9718164724064e-15
   8    8.9708003824921e-16
   9      0.17600243029785
  10     0.018840212954964
  11    -3.5067175678483e-16
  12    3.0154491772505e-16
  13    -5.3024118141839e-17
  14    -1.303952015565e-16
  15     -0.13228091786246
  16       0.3120186701676
  17      0.14751113159747
  18    -1.2010969568965e-15
  19    1.9171256096412e-15
  20    -3.1877925561744e-14
  21    -3.2976432364335e-16
  22    7.4299287018675e-16
  23    3.8961722057749e-14
  24     0.017948010772277
  25    1.3222642082049e-17
  26    1.5604760594884e-16
  27    2.8015461607456e-17
  28     1.75800425537e-16
  29     0.086381114021488
  30     -0.20900502674974
  31     -0.30597658690089
  32    -7.4670490458508e-16
  33    2.490309560608e-15
  34     -0.33195889905709
  35    -3.649411913548e-16
  36    1.6184810063009e-15
  37     -0.17600243029781
  38     0.018840212954961
  39    -2.2871267869565e-17
  40    -3.3495476009579e-16
  41    3.6065583723904e-18
  42    -1.3284134570196e-16
 Sym= A
 Ene=   -0.7364439681
 Spin= Alpha
 Occup=    2.00000
   1     0.063960944020061
   2     -0.15846146181206
   3     -0.24931261241912
   4    5.2348236751209e-15
   5    2.6441044148929e-15
   6      0.38755488362511
   7    4.0491564084316e-15
   8    2.2541208900769e-15
   9      0.19697360667086
  10     0.022181560722887
  11    7.2739076852775e-16
  12    -4.0845568369675e-16
  13    7.5237904507613e-17
  14    4.3387751199548e-16
  15    1.2076421253499e-14
  16    -1.599238053078e-14
  17    -1.2395129950976e-14
  18    2.9964936535054e-15
  19    -1.416235779817e-15
  20     -0.36766189729896
  21    9.9364484704953e-16
  22    -4.7231544939919e-16
  23    0.0094665297222935
  24    -4.7241652287426e-16
  25    5.9701276241761e-17
  26    -8.0360459196598e-16
  27    -7.6866487166699e-17
  28    -4.3517698403291e-16
  29    -0.063960944020076
  30       0.1584614618121
  31      0.24931261241916
  32    1.7496678745409e-15
  33    -5.4723937545852e-15
  34      0.38755488362517
  35    8.6832041142021e-16
  36    -4.1155332917052e-15
  37       0.1969736066709
  38    -0.022181560722894
  39    -7.226220702629e-18
  40    6.8855302502449e-16
  41    -2.2595770068496e-17
  42    2.9334617113524e-16
 Sym= A
 Ene=   -0.7116593641
 Spin= Alpha
 Occup=    2.00000
   1    -4.9420495482679e-16
   2    2.7725387623741e-16
   3    5.1001105798338e-15
   4      0.18381728086909
   5      0.31299597779925
   6    -4.6475107824362e-16
   7      0.11307224373675
   8      0.19253444139207
   9    1.7433494211333e-15
  10    -9.400778667778e-17
  11     0.017387333091083
  12     0.029606385734977
  13    1.6729779337618e-16
  14    -1.3521863568708e-16
  15    5.7350570325355e-16
  16    -1.3685112800384e-15
  17    -1.1014057326194e-14
  18      0.18030802567301
  19       0.3070205724606
  20    3.2668543447023e-16
  21     0.064887104532319
  22      0.11048690652823
  23    -2.0632218862444e-15
  24    -2.1519164269575e-16
  25    -1.6664871357189e-15
  26    -2.1386597061139e-15
  27    -1.9073383875236e-16
  28    1.4062943798643e-16
  29    -3.4668502911259e-16
  30    -4.7438470571039e-16
  31    7.4160009826896e-15
  32      0.18381728086906
  33      0.31299597779922
  34    -4.1410372794125e-16
  35      0.11307224373673
  36      0.19253444139204
  37    -3.0939122751761e-15
  38    8.1912879855195e-17
  39    -0.017387333091081
  40    -0.029606385734974
  41    5.4811358333564e-17
  42    -1.5428185293224e-16
 Sym= A
 Ene=   -0.7116593641
 Spin= Alpha
 Occup=    2.00000
   1    -3.4637570540787e-17
   2    1.4976073276479e-16
   3    -5.6111420269159e-16
   4      0.31299597779925
   5     -0.18381728086908
   6    -1.6002856012794e-15
   7      0.19253444139207
   8     -0.11307224373674
   9    -1.5417077501488e-15
  10    -2.8614304000401e-16
  11     0.029606385734977
  12    -0.017387333091082
  13    8.2804642234636e-17
  14    1.5815745495725e-16
  15    -8.0721621639413e-16
  16    2.0471221133097e-15
  17    7.5370530506067e-16
  18       0.3070205724606
  19     -0.18030802567301
  20    3.4199335937453e-15
  21      0.11048690652823
  22    -0.064887104532322
  23    -1.8206757089357e-15
  24    -1.244613766984e-16
  25    -1.5455386360861e-15
  26    6.8742633410805e-16
  27    -1.2093479213966e-18
  28    -2.9460172314782e-16
  29    1.2491766695946e-15
  30    -3.2505582708685e-15
  31    -3.0688799285523e-15
  32      0.31299597779922
  33     -0.18381728086907
  34    -5.879527627322e-15
  35      0.19253444139205
  36     -0.11307224373673
  37    -3.8609650035264e-15
  38    4.8634720584923e-16
  39    -0.029606385734974
  40     0.017387333091081
  41    3.6550959111116e-17
  42    1.3472557356647e-16
 Sym= A
 Ene=   -0.5387783517
 Spin= Alpha
 Occup=    2.00000
   1    2.7619563686146e-17
   2    6.8381728670586e-17
   3    -1.0959195088581e-15
   4     -0.44996758893107
   5     0.065401747889015
   6    -3.6276560754523e-17
   7     -0.33981099677334
   8     0.049390742105848
   9    5.828049028695e-17
  10    1.6446423757214e-16
  11    -0.026558585617854
  12    0.0038602289666996
  13    5.0967781719358e-16
  14    3.4201389147782e-16
  15    2.6545050239319e-16
  16    -3.808703320674e-16
  17    8.1107545118241e-16
  18    1.6804203812174e-14
  19    6.2623370381668e-16
  20    -1.2103948876687e-15
  21    1.1236403468076e-14
  22    -1.4155576914916e-16
  23    -4.4643015177791e-16
  24    7.8568827111685e-17
  25     0.068955985456346
  26    -0.010022592931566
  27    -2.4330577778604e-16
  28    -3.9173695569743e-16
  29    -2.9588390236225e-16
  30    1.1808818770466e-15
  31     4.30386722013e-16
  32       0.4499675889311
  33    -0.065401747889012
  34    1.2850479476851e-15
  35      0.33981099677335
  36    -0.049390742105846
  37    1.4731785136331e-15
  38    -1.7726753371877e-16
  39    -0.026558585617857
  40    0.0038602289667001
  41    1.9921749238812e-16
  42    1.8165074538132e-16
 Sym= A
 Ene=   -0.5387783517
 Spin= Alpha
 Occup=    2.00000
   1    3.3404950697877e-16
   2    -2.0336344124402e-15
   3    3.1414457936361e-15
   4     -0.06540174788901
   5     -0.44996758893107
   6    3.792326002541e-15
   7    -0.049390742105846
   8     -0.33981099677334
   9    4.383757318594e-15
  10    4.1291224689197e-16
  11    -0.0038602289666996
  12    -0.026558585617855
  13    2.199463578075e-17
  14    -3.215845543523e-17
  15    4.2870085188894e-16
  16    -8.4173616685833e-16
  17    -1.0189733529506e-14
  18    3.4658523890002e-15
  19    1.626785377438e-14
  20    -4.027921030782e-15
  21    1.6219859246067e-15
  22    9.7751444578473e-15
  23    -3.9943177429188e-16
  24    -7.5129237718701e-16
  25     0.010022592931566
  26     0.068955985456346
  27    -2.0426150010141e-16
  28    -6.0690149764742e-17
  29    -9.0465758534774e-16
  30    1.2923805300381e-15
  31    8.4213605994789e-15
  32     0.065401747889017
  33       0.4499675889311
  34    3.2320786206904e-15
  35     0.049390742105849
  36      0.33981099677335
  37    -7.4434044266991e-16
  38    -2.0626738362133e-16
  39      -0.0038602289667
  40    -0.026558585617857
  41    2.5113952148531e-17
  42    -8.433278527867e-17
 Sym= A
 Ene=    0.2169208714
 Spin= Alpha
 Occup=    0.00000
   1    -6.5617898242551e-18
   2    -1.6094591661099e-16
   3    1.189224737027e-15
   4      0.19505791048783
   5     -0.26707674733331
   6    1.563891012354e-16
   7      0.27216331111825
   8     -0.37265082813168
   9    4.3337713966418e-16
  10    5.9936292553013e-17
  11    -0.0092471050998847
  12     0.012661300155168
  13    -2.6267159058452e-16
  14    9.1636229813974e-17
  15    7.4127397620303e-17
  16    -9.29785598879e-17
  17    -7.6089184698039e-16
  18     -0.31025201205303
  19       0.4248025523574
  20    -1.5956036720086e-16
  21     -0.46173118090549
  22      0.63221051445795
  23    1.0941339839817e-15
  24    -1.9977110166348e-16
  25    7.6462293246541e-16
  26    -7.9775401735996e-16
  27    -6.3737715814917e-17
  28    1.0093571134168e-16
  29    2.7071707166696e-18
  30    -1.607006721869e-16
  31    -1.1857993562789e-16
  32      0.19505791048784
  33     -0.26707674733331
  34    -2.2989997096423e-16
  35      0.27216331111825
  36     -0.37265082813168
  37    -2.9102654719805e-17
  38    1.0150477952777e-16
  39     0.009247105099884
  40    -0.012661300155167
  41    1.3804535982654e-16
  42    4.5010450374454e-17
 Sym= A
 Ene=    0.2169208714
 Spin= Alpha
 Occup=    0.00000
   1    -1.8336930495633e-16
   2    -1.2826378064966e-16
   3    4.9867639983631e-15
   4     -0.26707674733331
   5     -0.19505791048784
   6    2.5990360779263e-16
   7     -0.37265082813167
   8     -0.27216331111825
   9    2.4415078759226e-15
  10    2.8354461202919e-16
  11     0.012661300155168
  12    0.0092471050998848
  13    -9.6836533791704e-17
  14    -8.8145173714921e-18
  15    1.1267802332891e-16
  16    -8.3358922579162e-17
  17    -6.6238178810675e-15
  18      0.42480255235741
  19      0.31025201205302
  20    -2.6846203407328e-16
  21      0.63221051445794
  22       0.4617311809055
  23    2.7526886030207e-15
  24    -3.5707700621191e-16
  25    -1.0874099376942e-15
  26    -6.9591307897358e-16
  27    7.754676848764e-18
  28    6.1374328324352e-17
  29    -1.6034269479989e-16
  30    1.5031373800509e-16
  31    1.3926587122998e-15
  32     -0.26707674733331
  33     -0.19505791048784
  34    -1.6770262079438e-16
  35     -0.37265082813168
  36     -0.27216331111826
  37    -1.2607502073625e-15
  38    1.1550985426728e-16
  39    -0.012661300155168
  40    -0.0092471050998836
  41    -4.0626286529909e-17
  42    -8.1204915071877e-17
 Sym= A
 Ene=    0.2606509641
 Spin= Alpha
 Occup=    0.00000
   1     0.075888506591035
   2     -0.14316661061143
   3      -1.0248474716004
   4    5.9799634365448e-16
   5    -3.4874710201639e-17
   6     -0.23355132682632
   7    -6.9493486574918e-16
   8    -1.8711888241124e-15
   9      -0.6464631023677
  10    -0.051255305568407
  11    9.976259816204e-16
  12    -1.4684371692058e-15
  13    5.115657889781e-16
  14    1.7360616844383e-15
  15    -0.079446752712772
  16    -0.035104727858867
  17       2.5688225444945
  18    1.1055440044913e-15
  19    2.3924589297643e-15
  20    -6.1957282169233e-14
  21    1.4203716887577e-15
  22    2.1080577830585e-15
  23    -8.7860062412378e-13
  24    -0.012239307497813
  25    1.0681510512189e-15
  26    -2.8608538759988e-16
  27    -2.7467429935392e-16
  28    -1.5364807200674e-15
  29     0.075888506591005
  30     -0.14316661061154
  31      -1.0248474715991
  32    -1.79149715565e-16
  33    1.9731620300138e-15
  34      0.23355132682633
  35    -1.6417316661917e-16
  36    5.2946338483235e-16
  37       0.6464631023673
  38     -0.05125530556838
  39    3.6510081703796e-16
  40    7.8938298039708e-16
  41    -1.2895607300086e-16
  42    8.7532326561014e-16
 Sym= A
 Ene=    0.5175243687
 Spin= Alpha
 Occup=    0.00000
   1    -0.081985207234484
   2     0.029866362100531
   3       2.7775094730832
   4    4.3589989632371e-16
   5    2.462992297435e-17
   6    -0.087095225384738
   7    -1.0536206996342e-16
   8    4.2856855483452e-16
   9      0.81041275482803
  10     0.046647085459096
  11    -6.574228667682e-17
  12    9.1299069621969e-17
  13    -4.1545997759936e-17
  14    6.9831726808674e-17
  15    -2.5906413328449e-14
  16    6.8545376668056e-14
  17    2.0299618826102e-13
  18    -3.32983082569e-16
  19    -9.1527667698285e-16
  20     0.056604053187273
  21    1.9277895833265e-16
  22    1.0358057663999e-16
  23        4.010108684137
  24    -3.4193514080234e-14
  25    -6.3443652258861e-17
  26    -5.0374477513251e-17
  27    4.4784324344453e-18
  28    -7.3904516340248e-18
  29     0.081985207234511
  30    -0.029866362100659
  31      -2.7775094730833
  32    -2.3144542167748e-17
  33    1.8429134212818e-16
  34      -0.0870952253846
  35    7.8963359506022e-16
  36    5.4332768248312e-16
  37      0.81041275482814
  38    -0.046647085459075
  39    -8.4455157684588e-19
  40    6.3607765968455e-17
  41    -3.0020620202484e-17
  42    -1.8200909840139e-18
 Sym= A
 Ene=      0.66572867
 Spin= Alpha
 Occup=    0.00000
   1    1.4444299366991e-17
   2    3.0977100777522e-17
   3    -1.4633132782206e-15
   4    -0.003303787419541
   5    -0.073725855159633
   6    2.7870754074893e-16
   7    -0.006188599316893
   8     -0.13810203833928
   9    -3.2596396583298e-16
  10    -1.4294127187361e-16
  11    -0.003390076084575
  12    -0.075651434748251
  13    5.0489796103658e-16
  14    1.6123706638561e-16
  15    5.7261129269391e-17
  16    -8.8908556976795e-16
  17    9.0575302970325e-17
  18    -0.043566388872607
  19     -0.97220821680355
  20    1.3720435375546e-16
  21     0.057307534367042
  22       1.2788495268522
  23    -2.5088044978794e-15
  24    3.5134979928169e-17
  25    -3.6717540199505e-18
  26    4.2433724327658e-16
  27    -5.6567801658221e-16
  28    1.3570272715568e-17
  29    -6.3359835292751e-17
  30    -8.9434309350762e-17
  31    1.9718327362401e-15
  32    -0.0033037874195418
  33    -0.073725855159624
  34    1.0618332535764e-16
  35    -0.0061885993168932
  36     -0.13810203833929
  37    -9.8046543057234e-16
  38    -1.083045607731e-18
  39    0.0033900760845746
  40     0.075651434748246
  41    -6.2153981526275e-17
  42    -1.4755470902347e-17
 Sym= A
 Ene=      0.66572867
 Spin= Alpha
 Occup=    0.00000
   1    -3.1117633074638e-18
   2    8.7432548517174e-17
   3    -1.1556507578876e-15
   4    -0.073725855159637
   5    0.0033037874195403
   6    4.1563469384549e-16
   7     -0.13810203833928
   8    0.0061885993168952
   9    -2.9768725254735e-16
  10    -1.8042074736528e-16
  11    -0.075651434748251
  12    0.0033900760845746
  13    8.643582067738e-17
  14    -2.1673543289359e-16
  15    8.4815474179448e-17
  16    -2.0304217100454e-15
  17    1.0353665962647e-15
  18     -0.97220821680354
  19     0.043566388872607
  20    -2.6983221372487e-16
  21       1.2788495268521
  22    -0.057307534367044
  23    -1.4717740180693e-15
  24    1.2512061743819e-16
  25    -1.8953600820376e-15
  26    1.9095175947446e-17
  27    -4.9941902001578e-16
  28    5.628626114289e-17
  29    -2.1277975545364e-17
  30    -5.7761682822541e-17
  31    1.3033616709987e-15
  32     -0.07372585515964
  33      0.00330378741954
  34    -9.5371803052777e-18
  35     -0.13810203833927
  36    0.0061885993168957
  37    -1.458869790792e-15
  38    -3.3573391755297e-17
  39     0.075651434748246
  40    -0.003390076084575
  41    -1.1184065176679e-16
  42    -2.6698900634007e-16
 Sym= A
 Ene=    0.8262355103
 Spin= Alpha
 Occup=    0.00000
   1    -0.013991611164627
   2      0.12063109171203
   3     -0.67218194453867
   4    8.0532378013231e-16
   5    4.0902755880968e-16
   6      0.34681481684957
   7    -1.1610049074214e-15
   8    -7.846277455253e-16
   9     -0.31572879437956
  10     -0.18256022737616
  11    1.6143331643108e-16
  12    2.3530019226893e-17
  13    -1.380518778694e-16
  14    3.4620300170458e-17
  15      0.13366377608136
  16      -1.2034969318298
  17       1.9639147525694
  18    9.6538846654112e-16
  19    3.7053559965664e-16
  20    -9.7057567774622e-14
  21    -5.9284871792417e-16
  22    -6.1118665064132e-17
  23    1.3842088300398e-13
  24      0.32395229495656
  25    -1.9511565095569e-16
  26    -9.8072072953121e-17
  27    -5.9471529720947e-17
  28    -5.1988275348195e-17
  29    -0.013991611164622
  30      0.12063109171192
  31     -0.67218194453864
  32    -1.4042665766212e-16
  33    -9.5781402237122e-17
  34     -0.34681481684958
  35    7.1409206727618e-17
  36    -8.0022794125798e-17
  37      0.31572879437945
  38     -0.18256022737616
  39    -2.1525265526449e-16
  40    -8.9729814577592e-17
  41    -8.9690822653382e-18
  42    -7.6357258840366e-18
 Sym= A
 Ene=     0.980810988
 Spin= Alpha
 Occup=    0.00000
   1    -0.055455317969297
   2      0.16968044216099
   3      0.47841471173181
   4    5.9579429424804e-16
   5    2.1774538065761e-19
   6      -0.1103572355255
   7    -8.0544531040268e-16
   8    -3.8657988089262e-16
   9        1.014077114146
  10    -0.097720146953352
  11    8.8513650909365e-17
  12    -1.7000583337738e-16
  13    -1.6333256220247e-16
  14    4.655096126383e-17
  15    1.2144233069096e-14
  16    2.5698738656399e-14
  17    1.9702196070922e-13
  18    -4.7984876941172e-16
  19    1.2657334324957e-16
  20       1.0210560642219
  21    6.2142178393022e-16
  22    1.0434723352059e-16
  23     0.074856394750584
  24    4.8616268734261e-14
  25    -1.9547682017679e-17
  26    6.5403728030759e-17
  27    -4.5255406894382e-17
  28    -3.5739258472402e-18
  29     0.055455317969305
  30     -0.16968044216103
  31     -0.47841471173199
  32    -4.8946616694763e-16
  33    -1.6079668652756e-16
  34     -0.11035723552559
  35    4.2985513431671e-16
  36    1.3024761517508e-16
  37       1.0140771141462
  38     0.097720146953304
  39    1.3493420114304e-16
  40    3.5926720395804e-17
  41    -8.6401509352466e-18
  42    2.0479495337639e-18
 Sym= A
 Ene=     1.048089395
 Spin= Alpha
 Occup=    0.00000
   1    -0.053302522548097
   2      0.18298600628025
   3      0.64382688963579
   4    -2.3256611170279e-15
   5    -1.1093295378697e-15
   6     -0.41593149102085
   7    3.1918760830216e-15
   8    1.5565930725497e-15
   9       1.2863957414413
  10     0.056635310174438
  11    -1.8155542024241e-16
  12    -3.7889983846396e-16
  13    3.5284236173061e-16
  14    3.6871227400454e-17
  15    -0.062561188612056
  16      -1.1564981427418
  17      -1.0085501002421
  18    5.0988555792286e-16
  19     3.63520326884e-16
  20    8.0493301551156e-14
  21    -1.3710034904076e-15
  22    -5.4923825704983e-16
  23    2.8009622210493e-14
  24     -0.27291466773372
  25    5.5360097357969e-16
  26    3.4331856213269e-16
  27    1.0184479916969e-16
  28    5.1982339809235e-17
  29    -0.053302522548088
  30      0.18298600628022
  31      0.64382688963569
  32    1.6400788953285e-15
  33    6.827699613834e-16
  34      0.41593149102086
  35    -1.6911564137741e-15
  36    -7.853059686694e-16
  37      -1.2863957414412
  38     0.056635310174458
  39    -1.1491504841316e-16
  40    -9.4947841249044e-17
  41    2.4553834100492e-17
  42    -3.0796775423576e-18
 Sym= A
 Ene=     1.148519915
 Spin= Alpha
 Occup=    0.00000
   1    1.2326667936833e-16
   2    -9.7716405829998e-16
   3    -4.7570767776481e-17
   4     -0.41813193923849
   5     -0.48896653614551
   6    1.6154855634295e-15
   7      0.52797083528598
   8      0.61741294144094
   9    -3.1915853843237e-15
  10    -5.5824796479573e-16
  11    -0.012358549650561
  12    -0.014452178002528
  13    -3.4955783400996e-16
  14    2.4427421915776e-16
  15    3.0148061166322e-16
  16    2.3377288444332e-15
  17    4.4191098047948e-15
  18    4.8198115316794e-15
  19    9.1388027369899e-15
  20    7.9119228728381e-16
  21    -2.8012896498925e-14
  22    -3.2074625709124e-14
  23    1.7634955223387e-15
  24    7.082668530525e-16
  25      0.12096512449049
  26      0.14145749789946
  27    -5.0349861907313e-16
  28    -5.8245923044003e-16
  29    3.0380988292492e-16
  30    -1.1837729354826e-15
  31    -3.3910641481558e-15
  32      0.41813193923845
  33      0.48896653614549
  34    -1.5105782145113e-15
  35     -0.52797083528592
  36     -0.61741294144088
  37    4.9018947536488e-15
  38    -2.007619483733e-16
  39    -0.012358549650558
  40    -0.014452178002526
  41    -3.667062433416e-16
  42    -6.2164501070506e-16
 Sym= A
 Ene=     1.148519915
 Spin= Alpha
 Occup=    0.00000
   1    1.7031841921396e-17
   2    -6.6788167583731e-17
   3    -9.9030897986333e-17
   4     -0.48896653614552
   5      0.41813193923848
   6    7.1522758605533e-16
   7      0.61741294144094
   8     -0.52797083528597
   9    -1.3891401445348e-15
  10    -2.2213722559185e-16
  11    -0.014452178002529
  12      0.01235854965056
  13    -1.7919829504546e-16
  14    2.677938734614e-16
  15    5.7290902667972e-17
  16    1.2561735239352e-15
  17    2.8824854649291e-15
  18    4.3954482284228e-15
  19    -8.1390278202207e-15
  20    7.2767110376114e-16
  21    -2.9433690529411e-14
  22    2.7799799472931e-14
  23    1.7183504343657e-15
  24    5.9528885649492e-16
  25      0.14145749789946
  26     -0.12096512449049
  27    -1.6235531112097e-16
  28    5.6599531741851e-16
  29    2.000440673709e-16
  30    -2.8899285077184e-16
  31    -3.1014863756712e-15
  32      0.48896653614548
  33     -0.41813193923846
  34    -5.8163971094921e-16
  35     -0.61741294144087
  36      0.52797083528592
  37    2.7694364440889e-15
  38    -1.201716662356e-17
  39    -0.014452178002525
  40     0.012358549650558
  41    -2.5634474662808e-16
  42    -2.0419499963451e-16
 Sym= A
 Ene=      1.32614902
 Spin= Alpha
 Occup=    0.00000
   1    3.2334281881811e-17
   2    -8.6939362929043e-16
   3    1.3670872987059e-15
   4     0.036020201254025
   5     -0.66756907248582
   6    7.4439991534528e-16
   7    -0.059079473138558
   8       1.0949308363914
   9    -7.4072430108299e-17
  10    -2.2006794647942e-16
  11     0.003901971282254
  12    -0.072315957686922
  13    3.0108093106873e-16
  14    -4.2515077309872e-16
  15    8.5138797638808e-17
  16    -3.8266407649168e-16
  17    -2.011139757566e-15
  18    -0.010133195943999
  19      0.18780040039052
  20    3.0234080792984e-16
  21     0.053858158651237
  22     -0.99816324631398
  23    -9.9868943227864e-16
  24    -3.1712538492509e-16
  25    8.6729345004471e-16
  26    -1.3441943023894e-14
  27    8.2818585965691e-16
  28    -1.117003113178e-15
  29    5.3652800440449e-17
  30    -1.3783801951428e-15
  31    3.0051907733004e-15
  32     0.036020201254028
  33     -0.66756907248585
  34    7.7406078291251e-17
  35    -0.059079473138561
  36       1.0949308363915
  37    -1.0040240024684e-15
  38    -1.5410916478324e-16
  39    -0.0039019712822541
  40     0.072315957686925
  41    2.2500046268873e-16
  42    -4.910428477996e-16
 Sym= A
 Ene=      1.32614902
 Spin= Alpha
 Occup=    0.00000
   1    -9.7338537975783e-18
   2    -8.4835387742806e-16
   3    2.2149888811257e-15
   4     -0.66756907248581
   5    -0.036020201254024
   6    2.1041895816161e-15
   7       1.0949308363914
   8     0.059079473138556
   9    -8.9223071561046e-16
  10    -4.8975543113611e-16
  11    -0.072315957686922
  12    -0.0039019712822541
  13    -3.2807992016292e-16
  14    3.8665042343568e-16
  15    1.9496310844903e-17
  16    -6.2311640023835e-16
  17    -1.6356983646899e-15
  18      0.18780040039053
  19        0.010133195944
  20    1.3728937034107e-15
  21       -0.998163246314
  22    -0.053858158651238
  23    -1.7845238565845e-16
  24    -1.5767026779835e-16
  25    -1.7935837868717e-14
  26    -1.2273954761775e-15
  27    -8.7931735323196e-16
  28    5.9137892515758e-16
  29    1.7336613938946e-16
  30    -2.2703963597413e-15
  31    2.724262812719e-15
  32     -0.66756907248586
  33    -0.036020201254029
  34    1.0092605730182e-15
  35       1.0949308363915
  36     0.059079473138563
  37    -1.4410058843909e-15
  38    1.449652198689e-16
  39     0.072315957686926
  40    0.0039019712822537
  41    -3.5398467082811e-16
  42    -1.9632832109376e-16
 Sym= A
 Ene=     1.424024524
 Spin= Alpha
 Occup=    0.00000
   1    -0.031328900584335
   2      0.12065657500637
   3      0.55530163057512
   4    1.2723979625284e-15
   5    4.0385044142312e-16
   6      0.74599012540948
   7    -2.7441757195457e-15
   8    -6.5035658636497e-16
   9     -0.40792282296975
  10     -0.12588394807733
  11    4.989489336176e-16
  12    -3.02383248426e-16
  13    1.6917723436388e-16
  14    -9.9478634060549e-16
  15    -3.7063918597654e-15
  16    -4.5666103943385e-14
  17    -1.566487857767e-13
  18    -2.4519180154432e-16
  19    1.7226166216589e-16
  20      0.63462943240463
  21    1.7090077198335e-15
  22    4.8326385979538e-16
  23      0.62468779579933
  24    -2.9315262136481e-14
  25    -4.6441185460372e-17
  26    5.566380270056e-16
  27    1.3843155501823e-16
  28    -7.7772861718594e-16
  29     0.031328900584339
  30     -0.12065657500653
  31     -0.55530163057478
  32    1.4271740532935e-15
  33    3.7457285333768e-16
  34      0.74599012540945
  35    -1.7803042770561e-15
  36    -6.5428961349047e-16
  37     -0.40792282296985
  38      0.12588394807735
  39    -5.1306416917149e-17
  40    -3.3539843082153e-16
  41    4.7422698615653e-17
  42    -2.3574178907317e-16
 Sym= A
 Ene=     1.640547391
 Spin= Alpha
 Occup=    0.00000
   1    -2.0016825124395e-17
   2    -1.2479984048618e-16
   3    8.362518577605e-16
   4    2.2120200604518e-16
   5    -9.7352699376521e-16
   6    9.6659629697744e-16
   7    -3.3479090649973e-16
   8    1.4712282259234e-15
   9    -3.9699969759741e-16
  10    -1.4695674278471e-16
  11    -6.9647376739951e-16
  12    -2.6615858537326e-16
  13      0.15463519705563
  14      0.34602130059994
  15    1.3080530192683e-17
  16    -2.5285938596259e-16
  17    -5.2120755223173e-16
  18    -1.6077101566149e-16
  19    1.385340122956e-16
  20    7.5741093458277e-16
  21    1.1733535744516e-15
  22    -6.7343088432553e-16
  23    1.3233964159335e-16
  24    -1.1052617696921e-16
  25    4.9939134936702e-16
  26    7.9553817128002e-16
  27      0.30212944005476
  28      0.67606355983542
  29    6.5566385708065e-17
  30    -8.0057664385942e-16
  31    7.0764907483702e-16
  32    2.1600854969625e-16
  33    4.2044710211343e-17
  34    7.4787520033825e-16
  35    -7.5277244196196e-16
  36    -9.0305397805161e-17
  37    -6.4746781592965e-16
  38    6.562276556688e-17
  39    -1.2612505321758e-16
  40    -3.1938027348459e-16
  41      0.15463519705563
  42      0.34602130059993
 Sym= A
 Ene=     1.640547391
 Spin= Alpha
 Occup=    0.00000
   1    2.5664944255893e-17
   2    6.8267620241974e-17
   3    -9.735860138032e-16
   4    6.3582399309649e-16
   5    9.0452673692877e-16
   6    -4.5475327680319e-16
   7    1.7527358560008e-15
   8    -1.7871142117211e-15
   9    -5.6667342041836e-17
  10    1.7678817545965e-17
  11    -3.8590464352992e-15
  12    2.5097700189842e-16
  13      0.34602130059994
  14     -0.15463519705563
  15    1.8293890618653e-17
  16    2.180598345534e-16
  17    4.9066750200971e-16
  18    -4.8153519338019e-16
  19    1.3833828093345e-17
  20    -4.7738771684361e-16
  21    -4.9412050448569e-16
  22    1.4782583333201e-15
  23    -6.3827632659472e-16
  24    7.2423039497674e-17
  25    4.2703949706444e-15
  26    -2.6461982155531e-16
  27      0.67606355983541
  28     -0.30212944005476
  29    -1.0693669291809e-17
  30    3.9416773800697e-17
  31    2.9691331049492e-16
  32    -2.5299826318762e-15
  33    1.2425448511124e-15
  34    -6.8687779656454e-16
  35    1.0154094058709e-15
  36    -1.780924994877e-15
  37    6.2854560404108e-16
  38    -5.2047869456217e-17
  39    -3.216456149289e-15
  40    -1.6697507408593e-16
  41      0.34602130059994
  42     -0.15463519705563
 Sym= A
 Ene=      1.68690272
 Spin= Alpha
 Occup=    0.00000
   1    3.6070493477572e-17
   2    -2.3054771544808e-16
   3    -6.8545925497684e-17
   4    -0.067173819212761
   5      0.20842279846877
   6    -6.0850866597591e-16
   7    -0.00019253873476853
   8    0.00059739735486238
   9    -3.3347746558543e-17
  10    1.1025166139165e-16
  11      0.12998820851085
  12     -0.40331942568224
  13    2.3609259635495e-16
  14    2.3612158311946e-16
  15    2.5577961242127e-17
  16    6.2465445918451e-16
  17    2.6803704714461e-16
  18    -2.9009194839125e-15
  19    8.872637951914e-15
  20    -5.6841049782473e-16
  21    2.8497384190502e-15
  22    -6.3497963095289e-15
  23    3.8215881942479e-16
  24    1.5947846250327e-16
  25     -0.16044773473382
  26      0.49782737193011
  27    1.9441568506409e-15
  28    -1.3864787215989e-15
  29    -3.5150556470772e-18
  30    8.5936247154462e-17
  31    -4.1517891165712e-16
  32     0.067173819212765
  33     -0.20842279846878
  34    -7.2120512651655e-16
  35    0.00019253873476333
  36    -0.00059739735485297
  37    8.5871523196344e-16
  38    -2.9668892024995e-16
  39      0.12998820851084
  40     -0.40331942568222
  41    1.2623778508381e-15
  42    -3.6003251054054e-16
 Sym= A
 Ene=      1.68690272
 Spin= Alpha
 Occup=    0.00000
   1    2.0146666897279e-17
   2    2.9237677267876e-16
   3    -1.6065086030176e-15
   4      0.20842279846877
   5     0.067173819212762
   6    1.3015043956999e-16
   7    0.00059739735486551
   8    0.00019253873476608
   9    -8.3064373386385e-16
  10    -1.7107636397002e-16
  11     -0.40331942568224
  12     -0.12998820851085
  13    -3.2294191062998e-15
  14    4.0500326492759e-16
  15    3.0238448177508e-17
  16    1.3401671982128e-16
  17    -2.1703733549211e-16
  18    9.797036370462e-15
  19    3.1711618588384e-15
  20    -5.5577158013724e-16
  21    -7.5167839313392e-15
  22    -1.8086921814364e-15
  23    -1.4981882298937e-15
  24    1.4983681349421e-16
  25      0.49782737193011
  26      0.16044773473382
  27    -5.2472675455865e-15
  28    1.8523534620998e-15
  29    -9.624796561228e-18
  30    -6.661669090664e-16
  31    2.0556025741381e-15
  32     -0.20842279846878
  33    -0.067173819212765
  34    1.497586725033e-17
  35    -0.00059739735485351
  36    -0.00019253873476337
  37    -5.0028032699134e-16
  38    2.9624220629067e-16
  39     -0.40331942568222
  40     -0.12998820851084
  41    -3.1978620566045e-15
  42    4.7611629223765e-16
 Sym= A
 Ene=     1.748027533
 Spin= Alpha
 Occup=    0.00000
   1    -0.018287823943007
   2       1.1023569744629
   3      -2.6295199443104
   4    -7.031445614817e-16
   5    -7.2062960948866e-16
   6    -0.083916203556282
   7    2.3702378826768e-15
   8    -6.5765456613309e-16
   9      -1.0259939515514
  10      0.11112784528298
  11    1.8096017274565e-15
  12    -3.9533336388693e-15
  13    2.7185025954425e-15
  14    6.6077994731505e-15
  15     0.031792158758468
  16      0.39246044449603
  17       3.0151586756452
  18    -6.0555363781041e-17
  19    2.7450282886062e-15
  20    -2.0925131877132e-14
  21    -1.1584125465143e-15
  22    1.0220096266431e-15
  23    -3.9450097556744e-13
  24      0.40485190432379
  25    1.9814772822164e-15
  26    -5.0316259211644e-16
  27    -7.5559747340366e-16
  28    -4.4385554817984e-15
  29    -0.018287823942998
  30       1.1023569744626
  31      -2.6295199443094
  32    -8.6867313359048e-16
  33    8.2722416727804e-16
  34     0.083916203556374
  35    1.0452326040241e-15
  36    -4.8765261439095e-16
  37       1.0259939515511
  38      0.11112784528301
  39    6.1676392679546e-16
  40    2.9271936870157e-15
  41    -1.235169842868e-15
  42    1.8686302009421e-15
 Sym= A
 Ene=     2.014155641
 Spin= Alpha
 Occup=    0.00000
   1    -2.0597808322062e-17
   2    1.6638499566819e-16
   3    -1.0048581862902e-16
   4    5.1036969291335e-16
   5    -1.1258779144121e-16
   6    2.8533728665002e-16
   7    -7.0263432204465e-16
   8    4.9518789148588e-16
   9    -3.8587609653305e-17
  10    -2.9138973682437e-17
  11    6.9997935095798e-17
  12    1.7413828145692e-15
  13     -0.53525567558403
  14        0.462309994755
  15    -1.48496028295e-18
  16    -2.7735407058547e-16
  17    -3.1051938745842e-16
  18    -2.8663883325729e-16
  19    -1.0458877864508e-15
  20    3.4411361396176e-16
  21    4.739228664151e-16
  22    -1.6038412765984e-16
  23    -4.456624339984e-16
  24    -6.962968299579e-17
  25    1.323604614746e-16
  26    -1.9021317565546e-16
  27    -4.4190515423275e-15
  28    -1.4028735055008e-15
  29    1.9964004985293e-17
  30    -2.7339839117685e-16
  31    6.0027321970245e-16
  32    -3.3676303092864e-17
  33    -5.6913528902055e-17
  34    4.7770036649295e-16
  35    -8.365999382888e-17
  36    5.7803148098504e-16
  37    -6.137338627631e-16
  38    8.3312500667102e-18
  39    -2.8983044312513e-16
  40    -5.7182099722511e-16
  41      0.53525567558404
  42       -0.462309994755
 Sym= A
 Ene=     2.014155641
 Spin= Alpha
 Occup=    0.00000
   1    8.4181817678543e-18
   2    -3.8629831297276e-15
   3    9.7112850492105e-15
   4    5.7189394832851e-16
   5    2.8922042142747e-17
   6    8.8489380624278e-16
   7    -6.242926780837e-16
   8    4.130752602054e-16
   9    3.9475615288613e-15
  10    -5.1461724662469e-16
  11    5.0191918918937e-16
  12    1.2918619494613e-15
  13        0.462309994755
  14      0.53525567558404
  15    -6.7916664009972e-17
  16    -1.7667225904552e-15
  17    -1.4740241725668e-14
  18    -9.886074290436e-17
  19    -2.8145928307793e-16
  20    1.2817542006972e-16
  21    1.5326731188867e-17
  22    -8.1429421914039e-16
  23    -2.2990069152664e-15
  24    -1.7294250816093e-15
  25    -2.2947815377843e-16
  26    6.3413954729652e-16
  27    3.9140170803472e-15
  28    -5.5413503467281e-15
  29    7.2876230390638e-17
  30    -5.7495851090359e-15
  31    1.4649662682701e-14
  32    -3.0203118504665e-16
  33    -5.9116230750912e-16
  34    -3.6717677785538e-16
  35    2.482287191091e-16
  36    5.037825390229e-16
  37    -5.6853434403144e-15
  38    -3.9941836273121e-16
  39    -3.9305559257175e-16
  40    -1.0362908065254e-15
  41       -0.462309994755
  42     -0.53525567558404
 Sym= A
 Ene=     2.198527868
 Spin= Alpha
 Occup=    0.00000
   1    -0.012816650815528
   2       1.4686093825644
   3      -4.4957241409814
   4    -2.1747530002368e-18
   5    -5.3374054102288e-17
   6     0.074142075715845
   7    -2.3733220685454e-16
   8    6.5523094248771e-17
   9      -1.0596353343953
  10      0.20881389918003
  11    -3.247664259893e-18
  12    4.7544244574332e-16
  13    -1.43393269845e-16
  14    -8.3462960234942e-16
  15    1.1262375064157e-15
  16    5.7244402564658e-14
  17    -4.3602317510399e-13
  18    3.6334584944096e-17
  19    -2.4691082644826e-16
  20       -0.126471580811
  21    2.0639825740083e-16
  22    -4.2809443102969e-17
  23      -4.1929256703095
  24    -7.5084867076246e-14
  25    -1.5876470507423e-16
  26    -3.1449375327336e-18
  27    -1.3398767043362e-16
  28    3.4611633842727e-16
  29     0.012816650815529
  30      -1.4686093825645
  31        4.495724140982
  32    3.0931363707829e-16
  33    8.7171789217991e-17
  34     0.074142075715804
  35    -3.0711389276639e-16
  36    -3.3066895093747e-17
  37      -1.0596353343955
  38     -0.20881389918009
  39    5.158742024977e-17
  40    -3.0051514407562e-16
  41    1.9328361034221e-16
  42    -7.1600512601603e-17
 Sym= A
 Ene=     2.340707629
 Spin= Alpha
 Occup=    0.00000
   1    -1.2541380207101e-17
   2    3.1127965177102e-16
   3    -6.8063163299473e-16
   4    1.3756659535172e-16
   5    8.4763738902566e-16
   6    5.7141426778748e-17
   7    -3.7575662909111e-16
   8    -2.8040048574198e-15
   9    -8.8893775507866e-17
  10    1.3200302334194e-16
  11    -2.0638197134737e-16
  12    -3.9612090098354e-15
  13     -0.60635965247779
  14      0.10390610816433
  15    6.2895835711111e-18
  16    -9.6391500955772e-17
  17    1.2055111164252e-16
  18    5.3382654778087e-17
  19    2.6343061770569e-15
  20    1.6062440089532e-16
  21    7.398243223458e-16
  22    2.794150567774e-15
  23    -6.1269098381739e-16
  24    -2.1355304875018e-17
  25    5.9322611303422e-16
  26    -5.7303082949056e-16
  27      0.69440433918354
  28      -0.1189934918693
  29    -1.143271918424e-18
  30    -9.8885250857146e-17
  31    4.4066854834438e-16
  32    8.0030906637794e-17
  33    1.284162593144e-15
  34    1.3229696434677e-16
  35    -3.8209673520348e-16
  36    -2.5609725817637e-15
  37    -1.7971885923174e-16
  38    -1.637672473961e-16
  39    1.3497235603337e-15
  40    4.1052707852909e-15
  41     -0.60635965247778
  42      0.10390610816433
 Sym= A
 Ene=     2.340707629
 Spin= Alpha
 Occup=    0.00000
   1    5.7867230842312e-17
   2    5.9207186711959e-15
   3    -1.640544557673e-14
   4    1.2802696658813e-15
   5    -1.6935363171188e-16
   6    -1.1110568309906e-15
   7    -4.6192636343566e-15
   8    -2.2414474280418e-16
   9    -6.9645163958528e-15
  10    9.8381164557097e-16
  11    -7.0710873454893e-15
  12    -1.2802920658144e-15
  13     -0.10390610816433
  14     -0.60635965247779
  15    4.9995169731507e-17
  16    2.3905123079511e-15
  17    2.5613949515002e-14
  18    5.2261098299058e-15
  19    -6.0157298417553e-17
  20    2.5081290508609e-16
  21    3.6635536102355e-15
  22    3.493979268031e-16
  23    3.0014766883042e-15
  24    2.7608926375933e-15
  25    -4.8974924644738e-16
  26    -5.7185109914275e-16
  27       0.1189934918693
  28      0.69440433918353
  29    -3.7209646820435e-17
  30    8.3372051406713e-15
  31    -2.2979500907842e-14
  32    1.8258604456954e-15
  33    1.8037187393401e-16
  34    1.2367466430727e-15
  35    -3.8376038507357e-15
  36    -3.2239701686717e-16
  37    9.5189998273593e-15
  38    5.2324143405486e-16
  39    7.7156644108139e-15
  40    -2.7469020926356e-16
  41     -0.10390610816433
  42     -0.60635965247779
 Sym= A
 Ene=     2.462000769
 Spin= Alpha
 Occup=    0.00000
   1    -4.8456427419307e-17
   2    -3.5931348107452e-15
   3    1.0410886481412e-14
   4    -0.031645580412534
   5       0.1374502381672
   6    6.911628681095e-16
   7     0.097921439656573
   8     -0.42531453135048
   9    4.2989947710594e-15
  10    -6.0660212608945e-16
  11      0.17823200285639
  12     -0.77413752322663
  13    2.476449129755e-15
  14    -2.8311317381124e-16
  15    2.4709592571932e-17
  16    -8.7852248690803e-16
  17    -1.6620444141312e-14
  18     -0.11915714979954
  19      0.51755026786567
  20    -1.8707035601674e-16
  21    -0.090852333412532
  22      0.39461039117653
  23    -1.6807465149182e-15
  24    -1.7760630889373e-15
  25    3.0825407424803e-15
  26    -4.9562590014704e-15
  27    -3.0533793041005e-15
  28    1.8705783796557e-15
  29    8.972605113723e-18
  30    -5.0705909359988e-15
  31    1.4282107528273e-14
  32    -0.031645580412536
  33       0.1374502381672
  34    -1.1282164052819e-15
  35     0.097921439656572
  36     -0.42531453135049
  37    -5.6220508768734e-15
  38    -6.6730206813983e-16
  39     -0.17823200285639
  40      0.77413752322664
  41    3.1147226029125e-15
  42    -2.5394150105458e-15
 Sym= A
 Ene=     2.462000769
 Spin= Alpha
 Occup=    0.00000
   1    -1.1500447552113e-17
   2    -1.960942654992e-16
   3    8.2340526283332e-16
   4      -0.1374502381672
   5    -0.031645580412534
   6    -1.8194197177138e-16
   7      0.42531453135049
   8     0.097921439656572
   9    6.1069254133485e-16
  10    3.6803025991348e-16
  11      0.77413752322664
  12      0.17823200285639
  13    -2.2745353736347e-15
  14    -5.9828994281377e-15
  15    -2.7438820650943e-17
  16    -8.9117971568579e-18
  17    3.8717683003552e-16
  18     -0.51755026786567
  19     -0.11915714979954
  20    6.0381866056769e-16
  21     -0.39461039117653
  22    -0.090852333412532
  23    7.2244150396273e-16
  24    5.6767619535632e-17
  25    1.4285473298072e-14
  26    1.069329853057e-15
  27    3.0452477622025e-15
  28    6.305236508152e-15
  29    2.2278065593232e-17
  30    3.4877216976601e-16
  31    -1.3904974628453e-15
  32     -0.13745023816721
  33    -0.031645580412535
  34    8.3049493846824e-17
  35      0.42531453135049
  36     0.097921439656572
  37    6.260201989501e-16
  38    -2.8082320950797e-16
  39     -0.77413752322664
  40     -0.17823200285639
  41    -2.3253481886982e-15
  42    -4.5309290651011e-15
 Sym= A
 Ene=     3.156281029
 Spin= Alpha
 Occup=    0.00000
   1    -0.019095717587126
   2     -0.87664885510684
   3       2.0741540934564
   4    -1.3024727473917e-16
   5    -1.3042801562653e-17
   6     -0.18551810031815
   7    -3.3873536058037e-16
   8    1.966760764059e-16
   9       1.3641039438382
  10      0.86626667516221
  11    -5.51046425653e-16
  12    1.5968614802675e-16
  13    1.7704753050496e-17
  14    -3.3496296334107e-17
  15     -0.17666426813954
  16      -1.9744414962396
  17      -1.6974680501904
  18    2.9099879351225e-17
  19    1.5701168544731e-16
  20    1.4969762410722e-13
  21    1.3324662506133e-17
  22    7.9139377940376e-17
  23    -4.6391064497916e-14
  24      0.18530251891378
  25    -1.0452504317158e-15
  26    5.880803557543e-16
  27    -2.8030876066021e-18
  28    -1.225080326103e-16
  29    -0.019095717587121
  30     -0.87664885510683
  31       2.0741540934564
  32    2.2512545614999e-16
  33    -3.8557488774018e-18
  34      0.18551810031817
  35    1.4560951026777e-16
  36    -2.8717312665864e-16
  37       -1.364103943838
  38      0.86626667516202
  39    -5.7803859954737e-16
  40    6.1023680688287e-16
  41    -3.7188925648592e-18
  42    9.0505514529666e-17
 Sym= A
 Ene=     3.305352172
 Spin= Alpha
 Occup=    0.00000
   1     0.039972986215697
   2      0.61648933865602
   3      -2.6969708257027
   4    1.015678466432e-16
   5    -2.9619212288567e-16
   6     -0.16610335614294
   7    3.1024690940673e-16
   8    -2.9225457335106e-16
   9      -1.3016866478731
  10     -0.98168782970501
  11    1.6921037260555e-15
  12    -9.8664077530598e-16
  13    -2.0019243297242e-16
  14    -1.73643049756e-16
  15    -1.8676244014669e-14
  16    -2.7066872944581e-13
  17    -4.1692263991169e-13
  18    -1.0313373500363e-16
  19    -6.3824526908819e-17
  20      -1.8462277625236
  21    -6.5028636106012e-17
  22    -5.4903394575442e-17
  23      -1.6719354932384
  24    -9.968512335647e-14
  25    1.8495066911479e-15
  26    -1.7276534098501e-15
  27    6.5881072185813e-17
  28    2.2478342965752e-16
  29    -0.039972986215708
  30     -0.61648933865621
  31       2.6969708257034
  32    -1.8543347399424e-16
  33    2.1868014632889e-16
  34       -0.166103356143
  35    -3.8150373730971e-16
  36    4.7213491976457e-16
  37      -1.3016866478735
  38      0.98168782970526
  39    1.1449845490457e-15
  40    -1.2160903560538e-15
  41    -1.5358551214237e-17
  42    -1.528542688498e-16
 Sym= A
 Ene=     3.320619905
 Spin= Alpha
 Occup=    0.00000
   1    -1.3518208293882e-16
   2    -3.3920867642084e-15
   3    1.1510343696113e-14
   4      0.14505617351318
   5    -0.061681678200385
   6    3.1944118680111e-16
   7      0.27940146150804
   8     -0.11880880778845
   9    5.654983402168e-15
  10    2.449674430457e-15
  11      0.77238606359495
  12     -0.32843875215553
  13    3.0098093286894e-16
  14    2.0330961962126e-16
  15    -1.3548230935767e-16
  16    -2.1751636094352e-15
  17    -8.2687855762425e-15
  18    2.0109961856824e-15
  19    1.5924059653648e-16
  20    3.4670538977766e-15
  21    1.0914542524574e-15
  22    1.7075068450555e-16
  23    2.9552530265183e-15
  24    -3.7853696646148e-16
  25       1.2294069218022
  26     -0.52277597217214
  27    -3.8639572685158e-16
  28    -2.9332975661793e-18
  29    4.8629693964032e-17
  30    -1.282499443006e-15
  31    1.7176271646385e-15
  32     -0.14505617351319
  33     0.061681678200387
  34    -3.1979363432298e-17
  35     -0.27940146150804
  36      0.11880880778845
  37    -1.0150480134583e-15
  38    -1.3257639713565e-15
  39      0.77238606359496
  40     -0.32843875215553
  41    4.1334070872338e-16
  42    -3.4479356947031e-18
 Sym= A
 Ene=     3.320619905
 Spin= Alpha
 Occup=    0.00000
   1    3.5239488594073e-17
   2    3.3050402068426e-16
   3    -1.9335552241351e-15
   4     0.061681678200384
   5      0.14505617351319
   6    -2.6858620656092e-16
   7      0.11880880778845
   8      0.27940146150804
   9    -8.2585302965959e-16
  10    -7.9594926377499e-16
  11      0.32843875215553
  12      0.77238606359496
  13    -2.3633763025175e-16
  14    -6.1019500244395e-16
  15    2.5570944149719e-17
  16    2.7933916827497e-16
  17    7.3586473027657e-17
  18    6.5575058525179e-16
  19    -1.1472467850829e-15
  20    -1.2011712976391e-15
  21    6.5350335798058e-16
  22    -5.9323661596511e-16
  23    -1.2190569402216e-15
  24    1.8977650919261e-16
  25      0.52277597217214
  26       1.2294069218022
  27    -1.5036917593094e-16
  28    4.8787598154801e-16
  29    -1.403162505284e-17
  30    -4.2899809628433e-16
  31    1.6530349713602e-15
  32    -0.061681678200387
  33     -0.14505617351319
  34    -6.3669973275201e-17
  35     -0.11880880778845
  36     -0.27940146150803
  37    -7.1499766001817e-16
  38    3.0185396999916e-16
  39      0.32843875215553
  40      0.77238606359496
  41    -1.9284301437294e-16
  42    -1.5167118613208e-16
 Sym= A
 Ene=     3.591940963
 Spin= Alpha
 Occup=    0.00000
   1     0.059203268670872
   2     -0.26056337200903
   3      -1.6447751060231
   4    -1.2376893505827e-16
   5    -1.9973473722665e-16
   6     -0.78548008324876
   7    3.9650258171913e-18
   8    -9.608162399565e-17
   9     -0.94356534420839
  10     -0.86998382604656
  11    -8.9106188793928e-17
  12    -1.1230077831276e-16
  13    5.782925027923e-18
  14    8.0319876443842e-17
  15     0.030448095994629
  16       1.9978475455422
  17       1.8028625080622
  18    2.5054574739264e-17
  19    4.7792263883861e-17
  20    -1.0781056555425e-13
  21    3.6640305602384e-17
  22    2.1720356241576e-17
  23    -1.3079750186714e-13
  24       1.7679587101016
  25    -1.4696593953473e-16
  26    -1.6434575477403e-16
  27    2.0952019333614e-17
  28    6.9830264975345e-18
  29     0.059203268670867
  30     -0.26056337200912
  31      -1.6447751060227
  32    6.7183582060062e-17
  33     6.24789235491e-17
  34      0.78548008324875
  35    -6.2099574647108e-18
  36    -2.9709522321989e-18
  37       0.9435653442082
  38     -0.86998382604646
  39    -5.5005763654352e-17
  40    -6.1197899956047e-17
  41    7.592662942441e-18
  42    -1.1878096396401e-18
