[Molden Format]
made by pyscf v[2.12.1]
[Atoms] (AU)
C   1   6     0.00000000000000     0.00000000000000     0.00000000000000
C   2   6     2.83458918684759     0.00000000000000     0.00000000000000
O   3   8     3.96842486158663     2.26767134947807     0.00000000000000
H   4   1    -0.75589044982602     0.94486306228253     1.70075351210856
H   5   1    -0.75589044982602     0.94486306228253    -1.70075351210856
H   6   1    -0.75589044982602    -1.88972612456506     0.00000000000000
H   7   1     3.59047963667362    -0.94486306228253     1.70075351210856
H   8   1     3.59047963667362    -0.94486306228253    -1.70075351210856
H   9   1     5.76366467992344     2.07869873702157     0.00000000000000
[GTO]
1 0
 s    3 1.00
             71.616837    0.15432897000916
             13.045096    0.53532814003178
             3.5305122     0.4446345400264
 s    3 1.00
             2.9412494  -0.099967230075964
             0.6834831    0.39951283030359
             0.2222899    0.70011547053201
 p    3 1.00
             2.9412494    0.15591627210511
             0.6834831    0.60768372820466
             0.2222899    0.39195739529202

2 0
 s    3 1.00
             71.616837    0.15432897000916
             13.045096    0.53532814003178
             3.5305122     0.4446345400264
 s    3 1.00
             2.9412494  -0.099967230075964
             0.6834831    0.39951283030359
             0.2222899    0.70011547053201
 p    3 1.00
             2.9412494    0.15591627210511
             0.6834831    0.60768372820466
             0.2222899    0.39195739529202

3 0
 s    3 1.00
             130.70932    0.15432896872316
             23.808861    0.53532813557095
             6.4436083    0.44463453632131
 s    3 1.00
             5.0331513  -0.099967228656673
             1.1695961    0.39951282463148
              0.380389    0.70011546059208
 p    3 1.00
             5.0331513    0.15591626847816
             1.1695961    0.60768371406861
              0.380389    0.39195738617424

4 0
 s    3 1.00
            3.42525091    0.15432897070298
            0.62391373    0.53532814243847
             0.1688554    0.44463454202535

5 0
 s    3 1.00
            3.42525091    0.15432897070298
            0.62391373    0.53532814243847
             0.1688554    0.44463454202535

6 0
 s    3 1.00
            3.42525091    0.15432897070298
            0.62391373    0.53532814243847
             0.1688554    0.44463454202535

7 0
 s    3 1.00
            3.42525091    0.15432897070298
            0.62391373    0.53532814243847
             0.1688554    0.44463454202535

8 0
 s    3 1.00
            3.42525091    0.15432897070298
            0.62391373    0.53532814243847
             0.1688554    0.44463454202535

9 0
 s    3 1.00
            3.42525091    0.15432897070298
            0.62391373    0.53532814243847
             0.1688554    0.44463454202535

[5d]
[7f]
[9g]

[MO]
 Sym= A
 Ene=    -20.23675286
 Spin= Alpha
 Occup=    2.00000
   1    -2.3583723275542e-05
   2    0.00031706887380467
   3    0.00017616794513949
   4    0.00033429109472813
   5    2.251050342352e-17
   6    0.0005686948552528
   7    -0.0054665503065315
   8    -0.0021974068758177
   9    -0.0042106057292184
  10    -2.1354981193471e-18
  11      0.99402026486142
  12     0.027181343573109
  13     0.001791386026557
  14    -0.0040221594059192
  15    3.3217988306463e-18
  16    -6.4970254070013e-05
  17    -6.4970254069992e-05
  18    -3.1881516319172e-05
  19    0.00055355918029884
  20    0.00055355918029883
  21    -0.006094186192553
 Sym= A
 Ene=      -11.099503
 Spin= Alpha
 Occup=    2.00000
   1    -0.0017091496127352
   2     -0.00596695126283
   3    -0.004326923591824
   4    -0.00018310193439304
   5    -3.1394820354086e-16
   6      0.99204045228291
   7     0.036719111430758
   8    0.00049088441350566
   9    0.00011470526941425
  10    5.7202055309449e-18
  11    0.00040238343004528
  12    -0.0052557174258851
  13     0.001719204564758
  14    0.0024637231674596
  15    3.804357523738e-19
  16    8.2854804357323e-06
  17    8.2854804357791e-06
  18    3.0710477796234e-05
  19    -0.0069343018583539
  20    -0.0069343018583539
  21    -0.00093987012551789
 Sym= A
 Ene=    -11.04395385
 Spin= Alpha
 Occup=    2.00000
   1      0.99191961024919
   2     0.037962530768882
   3    -5.6777424879276e-05
   4    -0.00036113333448585
   5    -1.1472207627151e-17
   6    0.0026976589914163
   7    -0.0060508277384087
   8    0.0043861174267058
   9    -3.847482334103e-05
  10    -1.8400358974393e-18
  11    -1.2355549911207e-05
  12    0.00025381360029227
  13    -7.9427261580516e-05
  14    -9.0837570010404e-05
  15    -4.8103195699407e-20
  16    -0.0068169573236711
  17    -0.0068169573236712
  18    -0.0071511275801138
  19    5.5351780112292e-05
  20    5.5351780112288e-05
  21    -8.5275614217822e-05
 Sym= A
 Ene=    -1.309394324
 Spin= Alpha
 Occup=    2.00000
   1    -0.018164804289078
   2     0.043685675430259
   3     0.022559256475142
   4    0.0031513367818999
   5    -3.9077270271044e-16
   6    -0.096824292438738
   7      0.23396858633384
   8     0.057834692453212
   9     0.096859528343532
  10    -3.9894716114832e-17
  11     -0.21892454801984
  12      0.76978419040214
  13     0.040629248979128
  14     -0.12399875066947
  15    8.1459605187492e-17
  16    0.0060931032116673
  17    0.0060931032116674
  18    0.0047165819179806
  19     0.029573959691967
  20     0.029573959691967
  21      0.13585648896134
 Sym= A
 Ene=   -0.9702997684
 Spin= Alpha
 Occup=    2.00000
   1      -0.1841913359197
   2      0.51029252582125
   3     0.055591748636577
   4    -0.014946790485622
   5    1.8387109336351e-16
   6         -0.1272067632
   7      0.35865013870863
   8     -0.12225681097975
   9    -0.052148790665634
  10    -1.7537742278486e-16
  11     0.060723045818732
  12     -0.24200021455396
  13    -0.099732927710022
  14    -0.044464954776892
  15    4.7792689796058e-18
  16      0.12126292094997
  17      0.12126292094997
  18      0.13611327267371
  19     0.086390541569225
  20     0.086390541569225
  21     -0.10829628328901
 Sym= A
 Ene=    -0.791333139
 Spin= Alpha
 Occup=    2.00000
   1      0.11894841389154
   2     -0.36382308583499
   3      0.16500722263757
   4    -0.0036007197758968
   5    -2.0991017456433e-15
   6     -0.15122073286193
   7      0.47853569395141
   8      0.12946477666919
   9    -0.074427039291661
  10    -6.7064212109275e-16
  11     0.059598651738235
  12     -0.25937964870944
  13     -0.13731291357485
  14     -0.17613084109414
  15    -2.8375706900299e-16
  16     -0.15142308301163
  17     -0.15142308301162
  18     -0.15370183025505
  19       0.1935397671532
  20       0.1935397671532
  21     -0.15902541408949
 Sym= A
 Ene=   -0.6360663638
 Spin= Alpha
 Occup=    2.00000
   1    -0.0047448621136113
   2     0.013968143648941
   3    -0.075438444712798
   4     -0.20292655031595
   5    -7.1951365572074e-15
   6    -4.8836927761072e-06
   7    -0.023226484467389
   8      0.11488393049408
   9      -0.3740994964029
  10    -9.3087346613151e-15
  11     0.033118877939486
  12     -0.16089585499022
  13      0.47367912770511
  14     0.058147045295685
  15    -5.8783264586417e-15
  16    -0.043491378269081
  17    -0.043491378269073
  18      0.16863150180415
  19      0.16350039592947
  20      0.16350039592948
  21      0.35216501286184
 Sym= A
 Ene=   -0.6163216073
 Spin= Alpha
 Occup=    2.00000
   1    -2.2103040836126e-17
   2    1.1416386189057e-15
   3    -3.6056584654403e-16
   4    5.761689051448e-16
   5      0.27509860207509
   6    -5.2234030163054e-16
   7    1.7350827250845e-15
   8    2.6645699476547e-15
   9    -8.979300062127e-15
  10      0.46592443111184
  11    1.0194536313678e-15
  12    -5.3817463232571e-15
  13    1.1792021296262e-14
  14    1.8522739670384e-16
  15      0.32014488110833
  16      0.17134578614541
  17     -0.17134578614541
  18    -5.6085495281943e-16
  19      0.28316380096053
  20     -0.28316380096052
  21    8.7197212754147e-15
 Sym= A
 Ene=   -0.5226507016
 Spin= Alpha
 Occup=    2.00000
   1    0.0014108168141568
   2    -0.0029885160935084
   3     -0.41234082031299
   4      0.21395910939604
   5    2.3619970473294e-15
   6     0.011882445695317
   7    -0.037240103353564
   8      0.46629218303613
   9      0.10323677172212
  10    -1.2980763713769e-15
  11      0.04418916675853
  12     -0.22381868717364
  13     0.032813123573843
  14      -0.3942115572794
  15    -1.3099983232198e-15
  16      0.21618316790362
  17      0.21618316790362
  18    -0.052021084469255
  19     0.068381381506978
  20      0.06838138150698
  21    -0.029513204651694
 Sym= A
 Ene=   -0.5028595666
 Spin= Alpha
 Occup=    2.00000
   1     -0.01067662748587
   2     0.042349007950307
   3      0.19374360183481
   4       0.4852882489183
   5    4.6017483585642e-14
   6    -0.014872614105254
   7     0.037564631824185
   8     -0.18512780330134
   9     -0.13885346569474
  10    -2.5111935287287e-14
  11     0.023733602921946
  12     -0.11623545264981
  13      0.25950436403036
  14      0.12923868425967
  15    -3.2725306187038e-14
  16      0.16322866605108
  17      0.16322866605101
  18     -0.48052444427262
  19     0.037731783914513
  20     0.037731783914549
  21      0.22278533867055
 Sym= A
 Ene=    -0.490105072
 Spin= Alpha
 Occup=    2.00000
   1     7.05548161305e-16
   2    -9.1331677167479e-16
   3    -1.6392308638311e-14
   4    -4.4577957731659e-14
   5      0.50134989084616
   6    1.3918971291994e-15
   7    -4.3052004385886e-15
   8    1.734065306044e-14
   9    1.2282282703073e-14
  10     -0.23022895336145
  11    -2.1480945513298e-15
  12    1.0696548965698e-14
  13    -2.2628066450933e-14
  14    -1.2064178388724e-14
  15     -0.33069102015614
  16      0.38361406698126
  17     -0.38361406698129
  18    4.5171335121098e-14
  19     -0.17155319807966
  20      0.17155319807966
  21    -1.9860466383553e-14
 Sym= A
 Ene=   -0.3843977404
 Spin= Alpha
 Occup=    2.00000
   1     0.025225040033805
   2     -0.10495775689639
   3     -0.25652108753847
   4     0.091639670397179
   5    2.3147811347534e-15
   6     0.017642887315972
   7    -0.072215588782166
   8      0.16032208398463
   9     -0.30490162314303
  10    -1.8765095795598e-16
  11    -0.071280011735009
  12      0.37872773865351
  13     -0.31716089839369
  14      0.62107914444897
  15    1.4683568491865e-15
  16      0.10784409933982
  17      0.10784409933982
  18    -0.040036666339167
  19      0.22443891694894
  20      0.22443891694894
  21     -0.24899946393045
 Sym= A
 Ene=    -0.331537655
 Spin= Alpha
 Occup=    2.00000
   1    -1.9385947496733e-16
   2    1.1803785187835e-15
   3    6.0823539255404e-16
   4    -1.2407423750176e-16
   5     0.067741081013048
   6    2.6257542481883e-16
   7    -1.4293184251475e-15
   8    -3.3424383443715e-16
   9    1.4300597884643e-15
  10     -0.23006583721771
  11    1.1332555914448e-16
  12    -6.2454700943102e-16
  13    5.995051481261e-16
  14    -9.3868753241694e-16
  15       0.8831150599091
  16     0.088395277191402
  17    -0.088395277191404
  18    3.553949556013e-16
  19     -0.31043819943871
  20      0.31043819943871
  21    3.0801332013921e-16
 Sym= A
 Ene=    0.5497350542
 Spin= Alpha
 Occup=    0.00000
   1     0.027843870310511
   2      -0.1645843562655
   3     -0.16316414227753
   4      0.34848321697723
   5    -4.5229854332738e-15
   6    0.0018042327969625
   7    -0.069646912880506
   8     -0.17360056341939
   9      0.71364766838486
  10    1.9820440886244e-15
  11      0.10579822623424
  12      -0.6890512757809
  13     -0.25862958610554
  14      0.37163419885482
  15    -6.6231265646325e-16
  16     -0.20183824980696
  17     -0.20183824980696
  18      0.44484450948411
  19      0.38404580191106
  20      0.38404580191106
  21      0.67834693509734
 Sym= A
 Ene=    0.6256336367
 Spin= Alpha
 Occup=    0.00000
   1    1.0565761375497e-14
   2    -6.6938376272514e-14
   3    1.3933938263138e-14
   4    -2.6432947306164e-14
   5      0.70354982366389
   6    -7.3134975054268e-16
   7    4.0339495540066e-15
   8    -1.614991686379e-14
   9    5.6079421528889e-15
  10      0.72023691804955
  11    1.2340870155283e-15
  12    -8.0009734293168e-15
  13    -8.4094559357411e-15
  14    -1.3566234273074e-15
  15     -0.11858828040211
  16     -0.61448685430659
  17      0.61448685430667
  18    9.4677270387784e-15
  19     -0.60737186606105
  20      0.60737186606105
  21    1.4151819223794e-14
 Sym= A
 Ene=     0.687763421
 Spin= Alpha
 Occup=    0.00000
   1     0.090876338116419
   2      -0.5402243916799
   3     -0.50427556198189
   4     -0.63816138246885
   5    2.4618502759612e-15
   6    -0.079856422730299
   7      0.49279485020222
   8     -0.50778373722447
   9     -0.17722586505274
  10    -4.3405278785848e-14
  11     0.038821194946288
  12     -0.26554874519196
  13      -0.4751791755009
  14    -0.098362438465632
  15    7.5195021201883e-15
  16      0.37111237329157
  17      0.37111237329157
  18     -0.52169865645448
  19     -0.16915474244678
  20     -0.16915474244685
  21      0.64030004611709
 Sym= A
 Ene=    0.7170816476
 Spin= Alpha
 Occup=    0.00000
   1     0.070630891949418
   2     -0.46360245398827
   3      0.88720332327568
   4     -0.45221176175261
   5    1.0662333541082e-14
   6      0.12905780256638
   7     -0.80922368165316
   8      0.29135795813547
   9      0.25558679321722
  10    -5.8464247528968e-14
  11    0.0050836861043089
  12    -0.041640793015505
  13     -0.13500272688819
  14    -0.016088766628122
  15    9.5149443506627e-15
  16      0.65154152430868
  17      0.65154152430868
  18     0.077716625320199
  19      0.32775239726069
  20       0.3277523972606
  21     0.099140911331697
 Sym= A
 Ene=    0.7560222893
 Spin= Alpha
 Occup=    0.00000
   1     -0.13800862666973
   2      0.87821004905246
   3      0.35386027841497
   4    -0.048937850564215
   5    -7.8800527672687e-14
   6    -0.025513997884754
   7      0.16944389499097
   8      0.90497732682924
   9     -0.20585243391605
  10    1.0165669117211e-13
  11     0.061205062519963
  12     -0.41696904901895
  13     -0.48689708629924
  14      0.24795991731926
  15    -1.736992449176e-14
  16     -0.21681819846435
  17     -0.21681819846445
  18     -0.29041381633742
  19      -0.4417062467463
  20     -0.44170624674616
  21      0.56914909134839
 Sym= A
 Ene=    0.7695386468
 Spin= Alpha
 Occup=    0.00000
   1     -0.17554541797283
   2       1.1225183998879
   3     -0.22246820064809
   4     -0.47913028025036
   5    -1.8932692822257e-13
   6      0.13778149744251
   7     -0.85921526426637
   8     -0.12114832146031
   9      0.29929545058371
  10    2.1864964638202e-13
  11    -0.021231253024041
  12       0.1340419566858
  13     -0.00872182294237
  14     -0.13848468095411
  15    -3.7604642954669e-14
  16     -0.33198717691162
  17     -0.33198717691188
  18     -0.94408149828016
  19      0.52428774293263
  20      0.52428774293292
  21    -0.073545947559679
 Sym= A
 Ene=    0.7794497975
 Spin= Alpha
 Occup=    0.00000
   1    6.0791632498364e-14
   2    -3.8790351944886e-13
   3    3.882650625594e-14
   4    8.6770628419183e-14
   5     -0.85411866767035
   6    -2.5893886418343e-14
   7    1.6067243200658e-13
   8    -6.8247012514926e-14
   9    -5.0591746850498e-14
  10      0.86577506737001
  11    -8.7738516381596e-16
  12    8.1309477259526e-15
  13    3.2465836866245e-14
  14    -1.2493342643834e-15
  15     -0.14861053718207
  16       0.5869241257035
  17     -0.58692412570323
  18    2.4351511622489e-13
  19     -0.57652966947539
  20      0.57652966947525
  21    -2.1814425658738e-14
 Sym= A
 Ene=    0.8406063501
 Spin= Alpha
 Occup=    0.00000
   1     0.011922065232851
   2     -0.05949754838251
   3     -0.13597297143217
   4     -0.51808682853404
   5    -7.9909396632397e-15
   6     -0.14603262707397
   7      0.87167509697499
   8      0.31570396926288
   9      0.70008808310392
  10    2.0841113121055e-15
  11     0.056715215279816
  12      -0.3703576079048
  13      0.61255070103069
  14       0.6355363333148
  15    -3.2642472577289e-16
  16      0.17254675322461
  17       0.1725467532246
  18     -0.38504418891852
  19     -0.19808331986354
  20     -0.19808331986353
  21     -0.37904533439884
