[Molden Format]
made by pyscf v[2.12.1]
[Atoms] (AU)
C   1   6     0.00000000000000     0.00000000000000     0.00000000000000
H   2   1     1.19052745847599     1.19052745847599     1.19052745847599
H   3   1    -1.19052745847599    -1.19052745847599     1.19052745847599
H   4   1    -1.19052745847599     1.19052745847599    -1.19052745847599
H   5   1     1.19052745847599    -1.19052745847599    -1.19052745847599
[GTO]
1 0
 s    3 1.00
             71.616837    0.15432897000916
             13.045096    0.53532814003178
             3.5305122     0.4446345400264
 s    3 1.00
             2.9412494  -0.099967230075964
             0.6834831    0.39951283030359
             0.2222899    0.70011547053201
 p    3 1.00
             2.9412494    0.15591627210511
             0.6834831    0.60768372820466
             0.2222899    0.39195739529202

2 0
 s    3 1.00
            3.42525091    0.15432897070298
            0.62391373    0.53532814243847
             0.1688554    0.44463454202535

3 0
 s    3 1.00
            3.42525091    0.15432897070298
            0.62391373    0.53532814243847
             0.1688554    0.44463454202535

4 0
 s    3 1.00
            3.42525091    0.15432897070298
            0.62391373    0.53532814243847
             0.1688554    0.44463454202535

5 0
 s    3 1.00
            3.42525091    0.15432897070298
            0.62391373    0.53532814243847
             0.1688554    0.44463454202535

[5d]
[7f]
[9g]

[MO]
 Sym= A
 Ene=    -11.03040328
 Spin= Alpha
 Occup=    2.00000
   1      0.99196383185723
   2     0.037974385344861
   3    -3.4939218104839e-18
   4    5.1796955694001e-18
   5    1.3853312949284e-17
   6    -0.0069082530538687
   7    -0.0069082530538687
   8    -0.0069082530538687
   9    -0.0069082530538687
 Sym= A
 Ene=   -0.9078728431
 Spin= Alpha
 Occup=    2.00000
   1     -0.22112286982727
   2      0.62986889326718
   3    -2.2833806026953e-16
   4     1.81056680061e-16
   5    4.1697907279384e-16
   6      0.18079755435403
   7      0.18079755435403
   8      0.18079755435403
   9      0.18079755435403
 Sym= A
 Ene=    -0.517270278
 Spin= Alpha
 Occup=    2.00000
   1    -1.5276825981109e-18
   2    -5.5847725781669e-16
   3      0.46946448051693
   4      0.32224816582008
   5    -0.042091849700529
   6      0.39604631295732
   7     -0.44052299224436
   8    -0.055540290437798
   9      0.10001696972484
 Sym= A
 Ene=    -0.517270278
 Spin= Alpha
 Occup=    2.00000
   1    9.9477664279016e-17
   2    1.3662490104739e-17
   3     -0.29351123312286
   4      0.38867697754247
   5     -0.29798299584338
   6     -0.10715421049008
   7     -0.20771183206712
   8      0.51785275188004
   9     -0.20298670932284
 Sym= A
 Ene=    -0.517270278
 Spin= Alpha
 Occup=    2.00000
   1    3.0211812057531e-16
   2    -1.411617108355e-15
   3     -0.13952333215744
   4      0.26664363747649
   5      0.48522872238733
   6      0.32352167356386
   7      0.18919901749691
   8    -0.041770606971446
   9     -0.47095008408933
 Sym= A
 Ene=    0.7119673267
 Spin= Alpha
 Occup=    0.00000
   1    -1.9428925199239e-15
   2    1.2325680200523e-14
   3     -0.16625342465959
   4       1.0782060176693
   5      0.14622041128042
   6     -0.58590145346067
   7      0.42397944042975
   8     -0.60808567401529
   9      0.77000768704619
 Sym= A
 Ene=    0.7119673267
 Spin= Alpha
 Occup=    0.00000
   1    -6.662209257889e-15
   2    4.3098243997963e-14
   3      0.98430026883547
   4      0.08598906526493
   5      0.48508523771568
   6     -0.86119776124335
   7      0.32402256460222
   8      0.76597492317017
   9     -0.22879972652911
 Sym= A
 Ene=    0.7119673267
 Spin= Alpha
 Occup=    0.00000
   1    2.4849669237837e-15
   2    -1.5925054175302e-14
   3     -0.46374735145742
   4     -0.20402571048993
   5      0.97716975490428
   6     -0.17131033523293
   7     -0.91079094188344
   8       0.3972449599772
   9       0.6848563171392
 Sym= A
 Ene=    0.7487038849
 Spin= Alpha
 Occup=    0.00000
   1     -0.25156841187575
   2       1.6115396871699
   3    -2.9381734246324e-14
   4    -1.2256544091481e-14
   5    -4.1796715873332e-15
   6     -0.66223216271104
   7     -0.66223216271109
   8     -0.66223216271108
   9     -0.66223216271106
