[Molden Format]
made by pyscf v[2.12.1]
[Atoms] (AU)
O   1   8     0.00000000000000     0.00000000000000    -1.14328430536186
O   2   8     0.00000000000000     0.00000000000000     1.14328430536186
[GTO]
1 0
 s    6 1.00
             5484.6717   0.001831099805527
             825.23495   0.013950098518422
             188.04696    0.06844509273075
               52.9645    0.23271427528445
              16.89757    0.47019295006289
             5.7996353    0.35852086192309
 s    3 1.00
             15.539616   -0.11077750382508
             3.5999336   -0.14802630511126
             1.0137618     1.1307670390447
 s    1 1.00
             0.2700058                   1
 p    3 1.00
             15.539616   0.070874299543311
             3.5999336    0.33975279781076
             1.0137618    0.72715859531445
 p    1 1.00
             0.2700058                   1
 d    1 1.00
                   0.8                   1

2 0
 s    6 1.00
             5484.6717   0.001831099805527
             825.23495   0.013950098518422
             188.04696    0.06844509273075
               52.9645    0.23271427528445
              16.89757    0.47019295006289
             5.7996353    0.35852086192309
 s    3 1.00
             15.539616   -0.11077750382508
             3.5999336   -0.14802630511126
             1.0137618     1.1307670390447
 s    1 1.00
             0.2700058                   1
 p    3 1.00
             15.539616   0.070874299543311
             3.5999336    0.33975279781076
             1.0137618    0.72715859531445
 p    1 1.00
             0.2700058                   1
 d    1 1.00
                   0.8                   1

[5d]
[7f]
[9g]

[MO]
 Sym= A
 Ene=    -20.76183771
 Spin= Alpha
 Occup=    1.00000
   1      0.70396133561271
   2     0.016140597186649
   3    -0.0031429216725156
   4    3.0318337914821e-17
   5    1.7002654434566e-16
   6    0.0014361256883512
   7    4.7701819242833e-18
   8    -5.9322774726309e-18
   9    -0.0010464011854329
  10    -0.0010668431059084
  11    1.6090358073959e-18
  12    -4.0922514503429e-18
  13    6.9435833085172e-19
  14    1.6013105069796e-19
  15      0.70396133555652
  16     0.016140597185336
  17    -0.0031429216719094
  18    7.0627007861758e-18
  19    -1.732119265989e-17
  20    -0.0014361256882315
  21    -3.2002412888018e-18
  22    9.9494326349415e-18
  23    0.0010464011852045
  24    -0.0010668431059306
  25    2.7881746674167e-18
  26    -9.0493236433751e-18
  27    3.8053497739767e-19
  28    -3.8326905879978e-19
 Sym= A
 Ene=    -20.76128621
 Spin= Alpha
 Occup=    1.00000
   1     -0.70391463722939
   2     -0.01644287122445
   3    0.0075670857108368
   4    1.6698704786865e-17
   5    4.599721047712e-17
   6    -0.0015009080635261
   7    -2.3534145741484e-18
   8    3.5627250991005e-18
   9    0.0028458561002672
  10    -0.00028296812955685
  11    -7.97537978125e-19
  12    1.2840004937526e-19
  13    -7.2241663664416e-19
  14    -6.6648341175374e-20
  15      0.70391463728558
  16     0.016442871225739
  17    -0.0075670857110877
  18    6.7136492336279e-18
  19    -1.5415627670202e-17
  20    -0.0015009080636408
  21    -1.0477449323604e-18
  22    6.8554164345137e-18
  23    0.0028458561003509
  24    0.00028296812947144
  25    2.3968742749467e-18
  26    -8.491242155164e-18
  27    5.0868313843353e-19
  28    -3.4293597343827e-19
 Sym= A
 Ene=    -1.714400226
 Spin= Alpha
 Occup=    1.00000
   1     -0.15801661395139
   2      0.37751944649622
   3      0.24011106453012
   4    -3.3550029817617e-16
   5    9.6278975415007e-16
   6      0.14508160959489
   7    -1.3302287709979e-16
   8    3.386076777205e-16
   9     0.037647894395654
  10     0.021133079526758
  11    9.0668346505432e-17
  12    -2.7141939324511e-16
  13    5.1826510561879e-17
  14    2.5517632496278e-17
  15     -0.15801661395139
  16      0.37751944649621
  17      0.24011106453019
  18    9.1840860791152e-17
  19    -1.3035543207159e-16
  20     -0.14508160959489
  21    7.4877747110763e-17
  22    -1.9199868607994e-16
  23    -0.037647894395696
  24     0.021133079526767
  25    1.2645511197078e-16
  26    -3.1223737835864e-16
  27    -6.1759072090939e-17
  28    -2.5436780467642e-17
 Sym= A
 Ene=    -1.201111958
 Spin= Alpha
 Occup=    1.00000
   1     -0.16520944226979
   2      0.40751390807399
   3      0.44990953486471
   4    -1.2254360144921e-15
   5    2.4013505348306e-15
   6     -0.13325836147905
   7    -5.0176005566206e-16
   8    8.9496654233688e-16
   9     -0.02314673576884
  10    -0.022186780306773
  11    1.1414174743254e-16
  12    -2.6519608160773e-16
  13    6.2635359394962e-17
  14    5.4834852746751e-17
  15      0.16520944226979
  16     -0.40751390807398
  17     -0.44990953486471
  18    -1.0944340418318e-15
  19    2.3805247826427e-15
  20     -0.13325836147905
  21    -4.7259578789508e-16
  22    1.0664472864382e-15
  23    -0.023146735768842
  24     0.022186780306774
  25    -1.473911947755e-16
  26    4.6461413027608e-16
  27    7.3955127621516e-17
  28    4.2794710790359e-17
 Sym= A
 Ene=   -0.8380418081
 Spin= Alpha
 Occup=    1.00000
   1    -4.7876621157459e-17
   2    1.6114906233925e-16
   3    2.2486386979077e-16
   4      0.44891660446805
   5      0.18658376262519
   6    -2.1146070731485e-16
   7      0.22466215149053
   8     0.093376607430783
   9    1.6828156368364e-16
  10    1.0749303535983e-16
  11     0.023929004690395
  12    0.0099456417663615
  13    -5.1071679800598e-16
  14    2.2950681899404e-16
  15    5.1128815658543e-17
  16    -6.4758650883244e-17
  17    -3.6817174174548e-16
  18      0.44891660446803
  19      0.18658376262521
  20    -5.5772468793961e-17
  21      0.22466215149052
  22     0.093376607430792
  23    9.3785342769257e-17
  24    -4.6610211381382e-17
  25    -0.023929004690397
  26    -0.0099456417663591
  27    1.9705239573668e-16
  28    -1.386131265091e-17
 Sym= A
 Ene=   -0.8380418081
 Spin= Alpha
 Occup=    1.00000
   1    1.1115522095168e-15
   2    -2.5356022366872e-15
   3    -4.1241722929783e-15
   4      -0.1865837626252
   5      0.44891660446805
   6    1.1755817233598e-15
   7    -0.093376607430789
   8      0.22466215149053
   9    2.5693423977063e-17
  10    -5.0984354907454e-17
  11    -0.0099456417663602
  12     0.023929004690396
  13    -1.0606002769056e-16
  14    -2.6239738820101e-16
  15    -7.4427685820968e-16
  16    1.7724630000518e-15
  17    2.1737591981526e-15
  18     -0.18658376262519
  19      0.44891660446803
  20    -1.1571761208572e-15
  21    -0.093376607430785
  22      0.22466215149052
  23    -1.1380552933689e-15
  24    2.0704871406123e-16
  25    0.0099456417663606
  26    -0.023929004690396
  27    3.9680811447946e-16
  28    3.1164626489728e-16
 Sym= A
 Ene=   -0.7605622781
 Spin= Alpha
 Occup=    1.00000
   1     0.048884456593616
   2     -0.11643158258569
   3      -0.2361291100843
   4    -1.2454826407875e-15
   5    3.0748099655725e-15
   6      0.47091157443265
   7    -8.4759455214715e-16
   8    2.4628079927019e-15
   9      0.23560803842888
  10     0.041515739823474
  11    2.2354054766636e-16
  12    -5.2723902853272e-16
  13    1.8744040578213e-16
  14    1.7268035981153e-16
  15     0.048884456593618
  16     -0.11643158258569
  17     -0.23612911008437
  18    2.319110962792e-15
  19    -5.4444505477942e-15
  20     -0.47091157443264
  21    1.5231822002893e-15
  22    -3.7047458779716e-15
  23     -0.23560803842883
  24     0.041515739823465
  25    2.8588601856123e-16
  26    -6.1699862763505e-16
  27    7.6573469651393e-17
  28    2.0260965515709e-20
 Sym= A
 Ene=   -0.5525384825
 Spin= Alpha
 Occup=    1.00000
   1    7.954849849366e-16
   2    -3.9650484254814e-15
   3    -2.5281912266752e-15
   4      0.18570418968511
   5     -0.51586249998222
   6    1.4360790343765e-15
   7      0.12623014967054
   8     -0.35065121951523
   9    -1.0790409719443e-15
  10    1.0059882455138e-15
  11    -0.0021864599312525
  12     0.006073706189175
  13    -2.8447899867947e-16
  14    -2.683977791568e-16
  15    -8.9638668814385e-17
  16    1.3275983367485e-15
  17    1.2568872008485e-16
  18     -0.18570418968514
  19      0.51586249998222
  20    -7.2822916278213e-15
  21     -0.12623014967055
  22      0.35065121951523
  23    -4.9280121429655e-15
  24    5.1505998107026e-16
  25    -0.002186459931251
  26    0.0060737061891751
  27    8.030141756537e-16
  28    8.9095542995604e-16
 Sym= A
 Ene=   -0.5525384825
 Spin= Alpha
 Occup=    1.00000
   1    3.6741593898607e-17
   2     -2.3480749692e-16
   3    -8.2276720809644e-17
   4     -0.51586249998221
   5     -0.18570418968512
   6    -2.8005975267631e-16
   7     -0.35065121951522
   8     -0.12623014967054
   9    -4.5239563034659e-16
  10    -7.293369959765e-17
  11    0.0060737061891755
  12    0.0021864599312517
  13    1.2459051299432e-16
  14    -5.5536062971155e-16
  15    -2.6910870109125e-17
  16    2.7475736677093e-16
  17    3.6707492290895e-16
  18      0.51586249998223
  19      0.18570418968513
  20    1.4714483715436e-16
  21      0.35065121951523
  22      0.12623014967055
  23    -1.6962147014469e-16
  24    1.0293992524145e-18
  25     0.006073706189175
  26    0.0021864599312513
  27    2.8798480183555e-16
  28    -1.995390045124e-16
 Sym= A
 Ene=    0.4268860413
 Spin= Alpha
 Occup=    0.00000
   1    -0.091277504744978
   2      0.21772398079195
   3       1.3233148010382
   4    4.2070672072225e-16
   5    -2.2472604585017e-15
   6      0.43829637612095
   7    1.1060830067071e-15
   8    -2.7654484387132e-15
   9       1.2624040416343
  10    0.0019363724749773
  11    8.6492864980112e-17
  12    -2.2194403673415e-16
  13    2.6541498252318e-16
  14    1.394540396347e-16
  15     0.091277504744976
  16     -0.21772398079195
  17      -1.3233148010382
  18    -7.3954029367968e-16
  19    2.2808964598181e-15
  20      0.43829637612096
  21    -9.5987399536983e-16
  22    3.4098597827579e-15
  23       1.2624040416343
  24    -0.0019363724749705
  25    3.8226003574345e-16
  26    -9.2557757332375e-16
  27    9.0266348712118e-17
  28    -1.874060385439e-17
 Sym= A
 Ene=     1.006188683
 Spin= Alpha
 Occup=    0.00000
   1    -0.030282406053936
   2      0.05702912627817
   3       1.5809799649532
   4    -1.3939313457112e-14
   5    4.9047213200462e-14
   6     -0.62885641201148
   7    1.3181111451964e-14
   8    -4.7742105743724e-14
   9       1.7502412738255
  10      0.25097318543127
  11    -1.553760055518e-15
  12    5.5151844395499e-15
  13    -2.5197022250182e-17
  14    -4.8262077420415e-17
  15     0.030282406053929
  16    -0.057029126278135
  17      -1.5809799649533
  18    -1.5117578932964e-14
  19    5.1099604706858e-14
  20     -0.62885641201138
  21    1.6024568933192e-14
  22    -5.3126682422299e-14
  23       1.7502412738254
  24     -0.25097318543127
  25    1.5974760046097e-15
  26    -5.6016660461546e-15
  27    -5.4099039302618e-17
  28    8.2875978439019e-18
 Sym= A
 Ene=     1.020111065
 Spin= Alpha
 Occup=    0.00000
   1    -1.2167316140922e-15
   2    -1.3048109569861e-16
   3    7.6971270222798e-14
   4     -0.40884197523601
   5     -0.49361987709008
   6    -2.7820696048983e-14
   7      0.40987350241911
   8      0.49486530283445
   9    7.9783322875978e-14
  10    1.1606491711185e-14
  11    -0.046946585820819
  12     -0.05668147921772
  13    -1.7519510269245e-16
  14    1.5548371272739e-16
  15    1.5146676087736e-15
  16    -3.5524510559358e-15
  17    -7.2772908763952e-14
  18     -0.40884197523601
  19     -0.49361987709008
  20    -3.0211947167848e-14
  21      0.40987350241911
  22      0.49486530283444
  23    8.2865788641482e-14
  24    -1.1630296846345e-14
  25     0.046946585820817
  26     0.056681479217718
  27    -3.8680595566485e-17
  28    -6.0551365555373e-17
 Sym= A
 Ene=     1.020111065
 Spin= Alpha
 Occup=    0.00000
   1     1.87476353515e-15
   2    6.9737015528035e-16
   3    -1.1397709052223e-13
   4     -0.49361987709008
   5      0.40884197523601
   6    4.279713072356e-14
   7      0.49486530283444
   8      -0.4098735024191
   9    -1.2136211008305e-13
  10    -1.6649099510485e-14
  11     -0.05668147921772
  12     0.046946585820819
  13    -3.2686173876758e-16
  14    4.2652345265361e-17
  15    -2.2224538173969e-15
  16    5.3884492903876e-15
  17    1.090712610278e-13
  18     -0.49361987709008
  19      0.40884197523601
  20    4.2083202117916e-14
  21      0.49486530283444
  22     -0.40987350241911
  23    -1.1947396902255e-13
  24    1.7825673584497e-14
  25     0.056681479217718
  26    -0.046946585820817
  27    -1.8315456255895e-17
  28    4.155394798872e-16
 Sym= A
 Ene=     1.094002769
 Spin= Alpha
 Occup=    0.00000
   1     0.041045000305198
   2      -0.3533253476818
   3      0.51038554739956
   4    7.4400636146855e-15
   5    -2.1120439932046e-14
   6      0.53578906568281
   7    -1.2431719019995e-14
   8    3.8394175023637e-14
   9      -0.7507014872643
  10     0.098715477518493
  11    1.1997989412395e-16
  12    5.2922360695722e-16
  13    -4.1351306379826e-17
  14    5.499153103193e-17
  15     0.041045000305204
  16     -0.35332534768181
  17      0.51038554739928
  18    -5.4821499479969e-15
  19    2.3397330449285e-14
  20     -0.53578906568292
  21    1.0465627501644e-14
  22    -4.0677101935243e-14
  23       0.7507014872646
  24     0.098715477518454
  25    -2.3625718518585e-16
  26    -4.3055637467954e-17
  27    6.2002455615466e-18
  28    2.8859218117093e-17
 Sym= A
 Ene=     1.132684135
 Spin= Alpha
 Occup=    0.00000
   1    -0.055512946742745
   2        0.910403999292
   3     -0.73700720118505
   4    -1.1009394204782e-13
   5    2.8432355255291e-13
   6     0.099582051891167
   7    1.9267444763414e-13
   8    -4.9643993692864e-13
   9     -0.24619007459267
  10      0.19353593832376
  11    1.9129141699236e-15
  12    -4.6350098159947e-15
  13    -6.0829306536196e-17
  14    -2.8757268717837e-16
  15    -0.055512946742744
  16      0.91040399929188
  17     -0.73700720118468
  18    1.1254268370162e-13
  19    -2.8839083591057e-13
  20    -0.099582051891176
  21    -1.9501014620639e-13
  22    5.0029118354064e-13
  23      0.24619007459249
  24      0.19353593832377
  25    1.5500092666703e-15
  26    -4.2101528269533e-15
  27    1.5970671118244e-16
  28    -6.311662927735e-17
 Sym= A
 Ene=     1.134451782
 Spin= Alpha
 Occup=    0.00000
   1    3.3329623220431e-17
   2    4.8059078245159e-16
   3    2.4810866927751e-16
   4      0.57989758062122
   5      0.22281819251397
   6    2.1535972754955e-15
   7      -1.0083872033747
   8      -0.3874598231113
   9    -3.0978615513775e-15
  10    7.9652230173851e-16
  11    -0.0082147892186499
  12    -0.0031564271808515
  13    5.7627950964109e-16
  14    -3.9342853203112e-16
  15    8.3113566731315e-18
  16    7.6493088422539e-16
  17    9.5535568002611e-17
  18     -0.57989758062122
  19     -0.22281819251397
  20    -1.687276150258e-15
  21       1.0083872033747
  22      0.38745982311131
  23    2.612257847447e-15
  24    7.2408847845975e-16
  25    -0.0082147892186479
  26     -0.00315642718085
  27    2.7729938652856e-16
  28    -1.9816116061348e-16
 Sym= A
 Ene=     1.134451782
 Spin= Alpha
 Occup=    0.00000
   1    2.9020895707962e-14
   2    -4.631265559579e-13
   3    3.845320489062e-13
   4     -0.22281819251397
   5      0.57989758062122
   6    -3.0773367222877e-14
   7      0.38745982311131
   8      -1.0083872033747
   9    9.5788481428272e-14
  10    -9.1109606137664e-14
  11    0.0031564271808516
  12    -0.0082147892186498
  13    1.3200149194179e-16
  14    6.7515286952172e-16
  15    2.8985695379295e-14
  16    -4.6465727699848e-13
  17    3.8326482788572e-13
  18      0.22281819251397
  19     -0.57989758062122
  20    2.7110493696929e-14
  21      -0.3874598231113
  22       1.0083872033747
  23    -9.1295271431015e-14
  24    -9.2704060347161e-14
  25    0.0031564271808509
  26    -0.0082147892186467
  27    -1.6380139573564e-17
  28     1.85420237081e-16
 Sym= A
 Ene=     1.681475108
 Spin= Alpha
 Occup=    0.00000
   1    -0.021180061806769
   2       1.2696201801541
   3        -3.75555720293
   4    7.2457248578465e-16
   5    -2.1438129811508e-15
   6     0.055222801219805
   7    -3.4612093446011e-16
   8    4.7391542556938e-16
   9      -1.9248367259323
  10    -0.074247076696597
  11    2.9824286218684e-16
  12    2.3677654565989e-17
  13    6.4096190491804e-16
  14    3.2465197024019e-18
  15     0.021180061806775
  16      -1.2696201801542
  17       3.7555572029301
  18    -4.8957930046709e-17
  19    -1.5098018737864e-17
  20     0.055222801219771
  21    -3.0201101258179e-16
  22    1.1178139808949e-15
  23      -1.9248367259323
  24     0.074247076696521
  25    7.1179760974646e-16
  26    -2.1364755268785e-15
  27    -2.01945030979e-17
  28    -1.4013281204339e-16
 Sym= A
 Ene=     1.752890661
 Spin= Alpha
 Occup=    0.00000
   1    1.0004316238109e-17
   2    -1.3987043082981e-16
   3    2.8304141954587e-16
   4     -0.14764152695028
   5    -0.039346151891028
   6    1.6983125702579e-17
   7    -0.011898723888361
   8    -0.0031709845264514
   9    3.0574298321214e-16
  10    -9.9119572086977e-17
  11      0.58438888643934
  12      0.15573839125231
  13    1.4735890941505e-14
  14    -1.3350104627976e-14
  15    -2.1568039489734e-17
  16    2.0619414466082e-16
  17    -3.8189323599748e-16
  18     -0.14764152695028
  19    -0.039346151891028
  20    1.2415418648786e-16
  21    -0.011898723888358
  22    -0.0031709845264497
  23    3.9517022398261e-17
  24    -6.6276857561244e-17
  25     -0.58438888643934
  26     -0.15573839125231
  27    1.2091673521134e-14
  28    -9.4694469278641e-15
 Sym= A
 Ene=     1.752890661
 Spin= Alpha
 Occup=    0.00000
   1    -6.1215010149867e-17
   2    -2.0254683329345e-15
   3    6.7462690258199e-15
   4     0.039346151891028
   5     -0.14764152695027
   6    -1.1491408692116e-15
   7    0.0031709845264507
   8    -0.011898723888361
   9    3.4500872465766e-15
  10    -1.8124089510525e-16
  11     -0.15573839125231
  12      0.58438888643934
  13    -3.264363066191e-14
  14    1.072598257912e-14
  15    2.7638485010135e-17
  16    2.3430076323526e-15
  17    -6.9654796316029e-15
  18     0.039346151891028
  19     -0.14764152695028
  20    -6.9585281568262e-16
  21      0.00317098452645
  22    -0.011898723888358
  23    3.1063211898846e-15
  24    -5.825823434581e-17
  25      0.15573839125231
  26     -0.58438888643933
  27    -3.5636126204804e-14
  28    7.4643900692048e-15
 Sym= A
 Ene=     1.773769266
 Spin= Alpha
 Occup=    0.00000
   1    4.9370918282766e-17
   2    -6.6043111409719e-16
   3    1.2205282322774e-15
   4    5.1308006626913e-15
   5    -6.5888251145373e-15
   6    -2.5665870666571e-16
   7    2.1063423271205e-15
   8    3.2254159425299e-18
   9    3.2040967739052e-16
  10    -2.5007556520847e-16
  11    -2.1568845621054e-14
  12    2.7792220204035e-14
  13      0.64353163222947
  14     -0.17577613107947
  15    -6.5936172395705e-17
  16    7.1666410698335e-16
  17    -1.017255595945e-15
  18    5.7469109729606e-15
  19    -6.7832533097445e-15
  20    -2.0954999838184e-16
  21    -4.3235646716345e-16
  22    -1.4246514843817e-15
  23    5.6323169131628e-16
  24    -3.1449944492407e-17
  25    2.2900379413883e-14
  26    -2.6258192659121e-14
  27      0.64353163222946
  28     -0.17577613107947
 Sym= A
 Ene=     1.773769266
 Spin= Alpha
 Occup=    0.00000
   1    8.8378440358615e-18
   2    1.3485121618641e-16
   3    -3.5328552497767e-16
   4    -1.7040420767045e-15
   5    -7.6149233677316e-16
   6    -1.7732411098215e-16
   7    -9.8853745575615e-16
   8    1.1783014421522e-15
   9    -1.9222958285996e-16
  10    2.3218673779851e-17
  11    6.1568224025588e-15
  12    2.3986713542409e-15
  13      0.17577613107947
  14      0.64353163222947
  15    -5.2171907550743e-17
  16    3.0843143871384e-16
  17    6.4233881773057e-17
  18    -1.367398483482e-15
  19    -4.730538225202e-16
  20    -1.5956824110264e-17
  21    4.2710900195359e-16
  22    -1.0882800025915e-15
  23    -1.0008357368419e-16
  24    7.8542533738053e-17
  25    -7.1847539012718e-15
  26    -1.5187471917217e-15
  27      0.17577613107947
  28      0.64353163222945
 Sym= A
 Ene=     2.174021088
 Spin= Alpha
 Occup=    0.00000
   1    -1.639894207511e-17
   2    1.932963836754e-16
   3    -1.174850267117e-15
   4    -3.5865266932907e-17
   5    -6.7387947195135e-17
   6    -1.1936060311301e-16
   7    -5.2313889812204e-16
   8    -4.0837269979323e-17
   9    -3.2964945700047e-16
  10    2.9667190299185e-16
  11    6.6319901166171e-16
  12    1.3304322982783e-15
  13     -0.75367894819291
  14    -0.049307367867401
  15    2.4840328207776e-17
  16    -9.5698811176052e-16
  17    1.5960869454792e-15
  18    -1.3371044810063e-16
  19    -1.1365461896447e-15
  20    2.7970124953022e-16
  21    -1.031572960073e-18
  22    -2.0279884798216e-16
  23    -8.9696663860839e-16
  24    2.8903577396931e-16
  25    -6.2492180879308e-16
  26    -1.4856474265293e-15
  27      0.75367894819291
  28     0.049307367867403
 Sym= A
 Ene=     2.174021088
 Spin= Alpha
 Occup=    0.00000
   1    2.1121707813453e-18
   2    -3.1520117766518e-17
   3    -2.6455452245401e-16
   4    4.065375564764e-16
   5    1.6082956131038e-16
   6    4.6843160229162e-18
   7    4.1436162661848e-16
   8    5.5620761240049e-16
   9    -1.2423452118839e-16
  10    -6.4393648697757e-17
  11    -2.1774748299131e-15
  12    1.9643135785526e-15
  13     0.049307367867403
  14      -0.7536789481929
  15    5.2037826074891e-18
  16    -2.0804576001956e-16
  17    4.3145171931539e-16
  18    7.8613410756587e-16
  19    -9.9999992550028e-16
  20    5.0326750667239e-17
  21    4.7047612046251e-17
  22    -4.9909677150122e-16
  23    -2.6815695742035e-16
  24    1.0168413843352e-16
  25    1.4839869154832e-15
  26    3.867358866976e-16
  27    -0.049307367867401
  28      0.75367894819292
 Sym= A
 Ene=     2.798035587
 Spin= Alpha
 Occup=    0.00000
   1     0.012407810322177
   2     -0.61247398075453
   3      0.25350264640064
   4    -3.6960613821762e-16
   5    2.9754471471923e-16
   6     -0.47278558866813
   7    -1.2306465133186e-15
   8    2.8561782021654e-15
   9      0.44832063667169
  10      0.71168848937952
  11    -2.4189534865423e-15
  12    5.3575463607927e-15
  13    4.2854586461072e-16
  14    2.0164001057148e-17
  15     0.012407810322194
  16     -0.61247398075455
  17      0.25350264640016
  18    9.177452211633e-17
  19    -2.4695773125444e-16
  20      0.47278558866828
  21    1.2896310122413e-15
  22    -2.8796974388591e-15
  23     -0.44832063667138
  24      0.71168848937922
  25    -2.4504795485329e-15
  26    5.2121218237053e-15
  27    -2.4606014486968e-16
  28    -1.1272508442016e-16
 Sym= A
 Ene=      2.86635199
 Spin= Alpha
 Occup=    0.00000
   1    -2.4023920612001e-16
   2    5.1733233370752e-15
   3    -2.1101284734396e-15
   4    -0.0079000256653589
   5     0.017791997092488
   6    3.8171512868992e-15
   7     -0.20082185708544
   8      0.45227978347465
   9    -1.903242352373e-15
  10    -2.9082281372882e-15
  11     -0.41385696061478
  12      0.93206555926178
  13    -6.2591342125157e-16
  14    5.908559447745e-16
  15    2.8872705358601e-17
  16    2.5636387397539e-15
  17    -1.4212045330846e-15
  18    0.0079000256653578
  19     -0.01779199709249
  20    -2.2947512846969e-15
  21      0.20082185708544
  22     -0.45227978347465
  23    3.1467619601928e-15
  24    -5.0089518672215e-15
  25     -0.41385696061478
  26      0.93206555926178
  27    -1.9533397120591e-16
  28    -1.1966260070271e-15
 Sym= A
 Ene=      2.86635199
 Spin= Alpha
 Occup=    0.00000
   1    -6.0618979990989e-18
   2    -9.8554982505084e-17
   3    4.1971287938353e-16
   4     0.017791997092489
   5    0.0079000256653577
   6    -1.4727317110706e-17
   7      0.45227978347465
   8      0.20082185708544
   9    3.2711615350521e-16
  10    1.490020262914e-16
  11      0.93206555926178
  12      0.41385696061478
  13    -6.358817736825e-16
  14    4.7738026718891e-16
  15    1.5529856085008e-18
  16    2.8091791503239e-17
  17    -3.9132823389452e-16
  18     -0.01779199709249
  19    -0.0079000256653581
  20    8.3456919327726e-17
  21     -0.45227978347465
  22     -0.20082185708544
  23    2.1580598624686e-16
  24    -4.1188104177207e-17
  25      0.93206555926178
  26      0.41385696061478
  27    -5.5813874987079e-16
  28    9.1115027712819e-17
 Sym= A
 Ene=     3.158445531
 Spin= Alpha
 Occup=    0.00000
   1      0.07386468243311
   2      0.32790358280029
   3      -3.6223041786284
   4    2.591732284118e-16
   5    -2.2439012743871e-17
   6      -0.5576195314495
   7    -3.154788215539e-16
   8    2.2279680090056e-16
   9      -2.2168716647967
  10      -1.3078095717308
  11    -2.4400519753435e-16
  12    6.5824727736492e-16
  13    -9.1311422760617e-17
  14    1.7885704603283e-17
  15    -0.073864682433106
  16     -0.32790358280045
  17       3.6223041786284
  18    1.2339415108399e-16
  19    -3.1969323373109e-16
  20     -0.55761953144939
  21    9.8555797045645e-17
  22    -1.942067058261e-16
  23      -2.2168716647968
  24       1.3078095717309
  25    -3.3415951737502e-16
  26    9.7173617574548e-16
  27    -4.8020189809716e-17
  28    -2.8838313687402e-17
 Sym= A
 Ene=    -20.70733245
 Spin= Beta
 Occup=    1.00000
   1      0.70442834165034
   2     0.013552626298353
   3    -0.0026076488711795
   4    5.0897489349571e-18
   5    2.6444171981245e-17
   6    0.0012923217640967
   7    -5.9302848317609e-19
   8    -6.1749705702903e-19
   9    -0.00076363109509623
  10    -0.00038341628799721
  11    -8.4160225537616e-18
  12    2.159144545628e-17
  13    -3.4453097322346e-18
  14    -9.8457753111191e-19
  15      0.70442834162748
  16     0.013552626297902
  17    -0.0026076488710035
  18    4.3196525698069e-18
  19    -2.2844967692449e-17
  20    -0.0012923217640448
  21    -1.484060076742e-19
  22    3.2016752590194e-18
  23    0.00076363109504171
  24    -0.00038341628802923
  25    -9.0351865545044e-18
  26    2.3833677153962e-17
  27    3.483038410714e-18
  28    1.2307790776438e-18
 Sym= A
 Ene=    -20.70623359
 Spin= Beta
 Occup=    1.00000
   1     -0.70442215327575
   2     -0.01388887629874
   3    0.0053774453852277
   4    7.4388963740827e-17
   5    -2.2467789986198e-16
   6    -0.0016004378378594
   7    -4.9275540364776e-18
   8    8.9486116769826e-18
   9    0.0016585813378395
  10    -0.00099049560803191
  11    5.9752614152972e-18
  12    -1.3545724385739e-17
  13    3.2490211581929e-18
  14    8.8428291486178e-19
  15      0.70442215329862
  16      0.01388887629918
  17    -0.0053774453853123
  18    9.556999257609e-19
  19    -1.5089289322208e-17
  20    -0.0016004378379016
  21    -1.8805538118287e-18
  22    7.8871139557637e-18
  23    0.0016585813378643
  24    0.0009904956080192
  25    -5.7587798340025e-18
  26    1.6450051713896e-17
  27    3.2612532439923e-18
  28    1.2650662591064e-18
 Sym= A
 Ene=    -1.583823143
 Spin= Beta
 Occup=    1.00000
   1     -0.15142718949594
   2      0.33339953124796
   3      0.25254260377939
   4    -9.5566877688714e-17
   5    1.1887716292149e-15
   6      0.16699805943541
   7    -1.6018891323303e-16
   8    5.0833082767166e-16
   9     0.056049852593482
  10     0.038232011691755
  11    -1.8089421268822e-16
  12    4.2461798797725e-16
  13    -7.2394670879738e-17
  14    -3.8586209354899e-17
  15     -0.15142718949594
  16      0.33339953124795
  17      0.25254260377944
  18    3.8870667491831e-16
  19    -1.0423137223655e-15
  20     -0.16699805943541
  21    1.2410029315616e-16
  22    -3.5659996909349e-16
  23    -0.056049852593521
  24     0.038232011691764
  25    -1.8856319635489e-16
  26    4.8757997215882e-16
  27    8.3754111502904e-17
  28    3.0513907155007e-17
 Sym= A
 Ene=    -0.993093387
 Spin= Beta
 Occup=    1.00000
   1     -0.15700432516023
   2      0.36987946715497
   3      0.44902916958633
   4    5.6722505136298e-16
   5    -3.4699403421783e-15
   6     -0.15715183721702
   7    4.2086414438636e-16
   8    -1.5411590174077e-15
   9    -0.061972089256566
  10    -7.7291260821063e-05
  11    -1.3466127665263e-16
  12    2.8589631527824e-16
  13    -8.8664346647783e-17
  14    -2.2553129682156e-17
  15      0.15700432516022
  16     -0.36987946715497
  17     -0.44902916958633
  18    1.3905853201404e-15
  19    -3.7158531511189e-15
  20     -0.15715183721701
  21    7.2400793423216e-16
  22    -1.878987105596e-15
  23    -0.061972089256565
  24    7.7291260821567e-05
  25    3.0593375995334e-16
  26    -6.8786807451813e-16
  27    -1.2074319169134e-16
  28    -6.6189706706476e-17
 Sym= A
 Ene=   -0.6982936921
 Spin= Beta
 Occup=    1.00000
   1     0.055940485495259
   2       -0.118117699577
   3     -0.26832804966261
   4    -6.8609523204953e-15
   5    2.1657804216893e-14
   6      0.45453262506918
   7    -5.6172206091936e-15
   8    1.6253247920392e-14
   9      0.24504054105428
  10     0.029203823536717
  11    1.4509357386069e-15
  12    -2.5359211517025e-15
  13    4.9802852182727e-16
  14    1.1524419382054e-16
  15     0.055940485495263
  16     -0.11811769957699
  17     -0.26832804966269
  18    5.4942602788211e-15
  19    -5.9569563370313e-15
  20     -0.45453262506917
  21    4.3167871638996e-15
  22    -4.2007405100196e-15
  23     -0.24504054105423
  24     0.029203823536708
  25    2.0020232194335e-15
  26    -5.2697699169158e-15
  27    -4.7949932927365e-16
  28    -1.6006151273022e-16
 Sym= A
 Ene=    -0.575286146
 Spin= Beta
 Occup=    1.00000
   1    -2.5351631143162e-15
   2    5.1428177820966e-15
   3    1.1736942352064e-14
   4      -0.1109467414146
   5      0.39304292955407
   6    -6.3879778517518e-15
   7    -0.083752538031089
   8      0.29670400847839
   9    -3.7899670523505e-15
  10    -1.0495521463941e-15
  11    -0.012899780833327
  12     0.045699112787723
  13    -6.6853875162993e-17
  14    3.5794871259028e-16
  15    2.8027912024956e-16
  16    -7.9668541230723e-16
  17    -1.1823270592539e-15
  18      -0.1109467414146
  19      0.39304292955406
  20    1.1234218859617e-14
  21    -0.083752538031087
  22      0.29670400847838
  23    5.7169047728319e-15
  24    -3.3873259313449e-16
  25     0.012899780833327
  26    -0.045699112787724
  27    1.7316709363374e-16
  28    -4.1973755080987e-16
 Sym= A
 Ene=    -0.575286146
 Spin= Beta
 Occup=    1.00000
   1    -6.5901570626207e-17
   2    2.1963775040269e-16
   3    -1.4432745480687e-16
   4      0.39304292955406
   5       0.1109467414146
   6    -2.0624135384384e-15
   7      0.29670400847839
   8     0.083752538031089
   9    -1.6367884242935e-15
  10    -1.0658046536621e-16
  11     0.045699112787723
  12     0.012899780833327
  13    -1.3539160182902e-16
  14    -8.8434966842245e-17
  15    -2.1880637007157e-16
  16    4.9975914998499e-16
  17    1.9596622857246e-15
  18      0.39304292955406
  19       0.1109467414146
  20    9.6471902454269e-16
  21      0.29670400847839
  22     0.083752538031086
  23    1.8978249886489e-16
  24    -2.9570608360155e-16
  25    -0.045699112787723
  26    -0.012899780833327
  27    3.4502137517798e-18
  28    8.6497228154531e-17
 Sym= A
 Ene=    0.1133174589
 Spin= Beta
 Occup=    0.00000
   1    2.8674236352688e-17
   2    2.239402017079e-17
   3    5.727566017752e-16
   4     -0.38521393699915
   5     -0.22949777889398
   6    1.7541190717729e-15
   7     -0.45524806579557
   8     -0.27122180666608
   9    2.6704610870422e-15
  10    2.1481419623014e-16
  11    0.0065018650587654
  12    0.0038735971010788
  13    3.2123312755601e-16
  14    -1.4154164176151e-16
  15    1.2715267636699e-16
  16    4.2774310921671e-18
  17    -2.6858657674932e-15
  18      0.38521393699915
  19      0.22949777889398
  20    -7.5395080445437e-16
  21      0.45524806579557
  22      0.27122180666608
  23    3.8816760147078e-16
  24    2.4350679542209e-16
  25    0.0065018650587656
  26    0.0038735971010784
  27    5.9039230093721e-17
  28    -1.1603724106567e-16
 Sym= A
 Ene=    0.1133174589
 Spin= Beta
 Occup=    0.00000
   1    -8.4111978304017e-17
   2    3.5565567340423e-15
   3    2.6895029228098e-15
   4      0.22949777889398
   5     -0.38521393699915
   6    1.6810370836896e-14
   7      0.27122180666608
   8     -0.45524806579557
   9    2.2946957574972e-14
  10    1.1081317147287e-15
  11    -0.0038735971010779
  12    0.0065018650587659
  13    7.0077029639717e-16
  14    -1.8632325126612e-15
  15    2.7581468233748e-15
  16    -6.7992578894915e-15
  17    -2.1506952779847e-14
  18     -0.22949777889398
  19      0.38521393699916
  20    -7.6867026015364e-15
  21     -0.27122180666608
  22      0.45524806579558
  23    4.0465182893603e-15
  24    7.4127405210251e-16
  25    -0.0038735971010801
  26    0.0065018650587644
  27    -4.7665455987851e-16
  28    2.0681599928509e-15
 Sym= A
 Ene=    0.5031559347
 Spin= Beta
 Occup=    0.00000
   1     -0.10373840501338
   2      0.21769771625452
   3        1.537552362783
   4    -2.5642152891102e-15
   5    5.2915925111159e-15
   6      0.39671281993526
   7    -1.777129653087e-15
   8    4.3896329448364e-15
   9       1.3980708053947
  10     0.020265539435789
  11    -9.7649128726988e-16
  12    1.9749171667516e-15
  13    -4.6056002206747e-16
  14    -1.5704103603084e-16
  15      0.10373840501338
  16     -0.21769771625452
  17       -1.537552362783
  18    2.240567065471e-15
  19    -3.8622927344173e-15
  20      0.39671281993528
  21    4.5716042818678e-15
  22    -1.0143069333436e-14
  23       1.3980708053947
  24    -0.020265539435781
  25    -1.2637887329978e-15
  26    2.6931095386917e-15
  27    2.6727992848072e-16
  28    4.7248403451545e-17
 Sym= A
 Ene=     1.035126235
 Spin= Beta
 Occup=    0.00000
   1    -0.025487160456299
   2     0.034502900225969
   3       1.5578871021274
   4    6.0746594596138e-15
   5    -1.5137785061097e-14
   6     -0.64654199407013
   7    -6.4703740471849e-15
   8    1.5676069256887e-14
   9       1.7113276213172
  10      0.25811906785238
  11    6.4590791099108e-16
  12    -1.4775447383108e-15
  13    2.7191661215583e-17
  14    -3.2790771308114e-17
  15     0.025487160456291
  16     -0.03450290022593
  17      -1.5578871021275
  18    5.7554295817998e-15
  19    -1.4257138488251e-14
  20     -0.64654199406999
  21    -5.5953757670362e-15
  22     1.40425469014e-14
  23        1.711327621317
  24     -0.25811906785239
  25    -5.5218495477768e-16
  26    1.4191165477071e-15
  27    3.5956357443381e-17
  28    -1.7508673908096e-17
 Sym= A
 Ene=     1.112323361
 Spin= Beta
 Occup=    0.00000
   1     0.011515071831991
   2      0.11790861416691
   3     0.095228516442568
   4    -1.307452261659e-15
   5    9.5290839402677e-15
   6      0.53212594570069
   7    3.2411035343157e-15
   8    -1.4297291667862e-14
   9     -0.77717445336093
  10      0.17299756051584
  11    2.0939661855803e-16
  12    4.7521680047711e-16
  13    5.3689348420274e-17
  14    3.770672328926e-17
  15     0.011515071831999
  16      0.11790861416684
  17     0.095228516442412
  18    2.590186770161e-15
  19    -2.2756078726286e-15
  20     -0.53212594570083
  21    -4.5010178677431e-15
  22    7.8224600248948e-15
  23      0.77717445336122
  24      0.17299756051579
  25    -6.9925111708749e-17
  26    -7.4730150356525e-16
  27    -7.3984393516875e-17
  28    -2.6097791272498e-17
 Sym= A
 Ene=     1.133024689
 Spin= Beta
 Occup=    0.00000
   1    8.1171194913857e-16
   2    -7.7469726801827e-15
   3    -1.4591673267561e-14
   4      0.63111494900365
   5     -0.24534113566731
   6    1.3296998009964e-14
   7     -0.57236876664411
   8      0.22250400414482
   9    -2.6366564617778e-14
  10    -5.4213898147754e-15
  11      0.10332569607473
  12    -0.040167078372348
  13    -2.4314717280237e-16
  14    -1.9394698724525e-16
  15    2.4207159600521e-16
  16    -4.9480664599343e-15
  17    2.6486295222516e-14
  18      0.63111494900365
  19      -0.2453411356673
  20    9.9999849922541e-15
  21     -0.57236876664411
  22       0.2225040041448
  23    -2.2906236657706e-14
  24     3.80755530179e-15
  25     -0.10332569607473
  26     0.040167078372347
  27    -2.4079957121205e-16
  28    -3.6958715311325e-16
 Sym= A
 Ene=     1.133024689
 Spin= Beta
 Occup=    0.00000
   1    -3.340939895222e-16
   2    -3.882071617912e-16
   3    2.2622051368171e-14
   4       0.2453411356673
   5      0.63111494900366
   6    -1.4965970419868e-14
   7     -0.22250400414481
   8     -0.57236876664412
   9    3.005632413339e-14
  10    3.7364613739367e-15
  11     0.040167078372348
  12      0.10332569607474
  13    3.3678916329175e-16
  14    4.0499756809053e-16
  15    4.2104100196434e-16
  16    -3.5686952842876e-15
  17    -2.1114419867321e-14
  18      0.24534113566731
  19      0.63111494900365
  20    -9.7477279260529e-15
  21     -0.22250400414481
  22     -0.57236876664409
  23    2.2234696829386e-14
  24    -6.0343937304933e-15
  25    -0.040167078372347
  26     -0.10332569607473
  27    6.7036259687866e-16
  28    7.3482239212651e-17
 Sym= A
 Ene=     1.160604185
 Spin= Beta
 Occup=    0.00000
   1    -0.071685054102651
   2      0.97111282564025
   3      -0.8777214257478
   4    4.6704490878896e-15
   5    -1.4480708418277e-15
   6      -0.1735639147569
   7    -5.213161871856e-15
   8    4.1293613683432e-15
   9      0.13977594058295
  10      0.13408858576637
  11    6.8764040368322e-16
  12    1.6367244247237e-16
  13    -1.8310956233989e-19
  14    2.0036113186332e-17
  15    -0.071685054102652
  16      0.97111282564017
  17     -0.87772142574739
  18    4.3424839666707e-15
  19    -5.464926458909e-17
  20      0.17356391475695
  21    -3.0125910680211e-15
  22    -2.476176271035e-15
  23     -0.13977594058323
  24      0.13408858576641
  25    -9.2223792862634e-16
  26    4.7617796460496e-16
  27    -1.0850128521869e-19
  28    3.3230112256108e-17
 Sym= A
 Ene=     1.258926375
 Spin= Beta
 Occup=    0.00000
   1    -4.8355896245775e-17
   2    -1.3880301764837e-16
   3    1.2189546185874e-15
   4      0.64367098827649
   5      0.26610706960108
   6    -2.70513633981e-16
   7     -0.93918035790583
   8     -0.38827683307338
   9    1.2228894278777e-15
  10    -1.4650154325504e-16
  11    -0.017508174006931
  12    -0.0072382458801289
  13    1.7214370545966e-16
  14    -1.267847202626e-16
  15    -3.5676074739034e-18
  16    3.9696190966104e-16
  17    -1.6001018479017e-15
  18     -0.64367098827649
  19     -0.26610706960108
  20    4.6775624959988e-16
  21      0.93918035790583
  22      0.38827683307339
  23    3.3324737930257e-16
  24    -3.1049350266022e-16
  25    -0.017508174006928
  26    -0.0072382458801254
  27    -7.3041248750763e-19
  28    3.778623923242e-16
 Sym= A
 Ene=     1.258926375
 Spin= Beta
 Occup=    0.00000
   1    -4.2285022247721e-16
   2    1.9365657621416e-15
   3    -2.4603339270996e-15
   4     -0.26610706960108
   5      0.64367098827648
   6    -7.3971865721414e-15
   7      0.38827683307339
   8     -0.93918035790582
   9    8.555895005257e-15
  10    -1.6526897307851e-15
  11    0.0072382458801277
  12    -0.017508174006933
  13    5.2205413822536e-17
  14    8.4737103693568e-17
  15    -2.8224363405279e-16
  16    3.8450664077158e-16
  17    -2.3530051448413e-15
  18      0.26610706960108
  19      -0.6436709882765
  20    6.6886697740945e-15
  21     -0.38827683307339
  22      0.93918035790583
  23    -6.5781916330039e-15
  24    -1.943544016456e-15
  25    0.0072382458801264
  26    -0.017508174006925
  27    -1.4352649675972e-16
  28    -1.2691857751861e-16
 Sym= A
 Ene=     1.730559131
 Spin= Beta
 Occup=    0.00000
   1    -0.025089495487723
   2       1.2798853496615
   3      -3.7029820419728
   4    1.2387323509862e-16
   5    -9.6893509488279e-17
   6     0.058825395997809
   7    -1.9787580444228e-15
   8    3.4554522380774e-15
   9      -1.8798792692124
  10      -0.0718532401065
  11    -1.2490206627972e-15
  12    2.5310451670929e-15
  13    -1.0114917731872e-15
  14    -2.6273982319892e-16
  15     0.025089495487727
  16      -1.2798853496615
  17       3.7029820419728
  18    4.7730177059822e-16
  19    -1.2032544715158e-15
  20     0.058825395997782
  21    1.2270216280518e-15
  22    -1.7071824774176e-15
  23      -1.8798792692124
  24     0.071853240106426
  25    -1.444502155768e-15
  26    3.3593763942008e-15
  27    4.7560707737923e-16
  28    6.8025309082268e-17
 Sym= A
 Ene=      1.81715809
 Spin= Beta
 Occup=    0.00000
   1    1.2345895167523e-16
   2    3.6884652545683e-16
   3    -4.0277849869716e-15
   4      0.06836432461174
   5     -0.20133093571445
   6    1.2568309361215e-15
   7    -0.0026914781170487
   8    0.0079263243049335
   9    -2.8671391351457e-15
  10    -6.1259816632854e-16
  11     -0.19219607138219
  12      0.56601180676877
  13    1.0480628815392e-16
  14    2.7323359073531e-15
  15    -2.2164944950695e-16
  16    -4.0349643227029e-17
  17    4.3453862437522e-15
  18     0.068364324611741
  19     -0.20133093571445
  20    2.0283568672808e-15
  21    -0.0026914781170503
  22    0.0079263243049392
  23    -2.5275148595577e-15
  24    6.9627665819303e-16
  25      0.19219607138219
  26     -0.56601180676877
  27    3.3459504786448e-15
  28    1.1717133458883e-15
 Sym= A
 Ene=      1.81715809
 Spin= Beta
 Occup=    0.00000
   1    6.2148414930051e-18
   2    -7.1485110439337e-17
   3    1.3956273058077e-16
   4      0.20133093571445
   5     0.068364324611738
   6    -2.9586541098475e-17
   7    -0.0079263243049322
   8    -0.0026914781170511
   9    5.4773184834105e-17
  10    2.3000900721426e-17
  11     -0.56601180676877
  12     -0.19219607138219
  13    5.8206973937684e-15
  14    -5.531351873295e-15
  15    -8.121402859636e-18
  16    1.4286870866587e-16
  17    -2.2144050231431e-16
  18      0.20133093571445
  19     0.068364324611742
  20    9.0737155987608e-17
  21    -0.0079263243049397
  22    -0.0026914781170486
  23    6.8467354443538e-17
  24    6.0387008488943e-17
  25      0.56601180676877
  26      0.19219607138218
  27    2.0361796308887e-15
  28    -4.2009504306911e-15
 Sym= A
 Ene=     1.849054494
 Spin= Beta
 Occup=    0.00000
   1    -2.7847487547239e-17
   2    3.9725056138224e-16
   3    -8.2177778450878e-16
   4    -1.6444676438453e-15
   5    -4.8654620706201e-16
   6    6.0223728217169e-17
   7    -1.0985038791687e-16
   8    3.8261328855541e-17
   9    -4.854294472713e-16
  10    1.0142424241129e-17
  11    4.664444525301e-15
  12    9.699239756336e-16
  13      0.56864161488347
  14     -0.34882219505058
  15    1.6875737706633e-17
  16    -2.948606776865e-16
  17    7.8485401961585e-16
  18    -1.9573953057016e-15
  19    -9.3019072477942e-16
  20    1.1274666573898e-16
  21    4.3292453560277e-16
  22    4.1378482558913e-16
  23    -4.1877178853248e-16
  24    5.6251263540918e-18
  25    -5.6308037666898e-15
  26    -1.6170544331359e-15
  27      0.56864161488346
  28     -0.34882219505057
 Sym= A
 Ene=     1.849054494
 Spin= Beta
 Occup=    0.00000
   1    -4.8681345286741e-17
   2    4.3584348867714e-16
   3    -5.8235421518777e-16
   4    4.6359619596171e-16
   5    4.6249593884955e-16
   6    1.8069487522895e-16
   7    4.0868376130923e-16
   8    5.5123820969858e-16
   9    -1.6061338860461e-16
  10    1.1773866524087e-16
  11    -3.7431759321305e-16
  12    -3.1982497925399e-15
  13      0.34882219505058
  14      0.56864161488347
  15    7.7474524344102e-17
  16    -6.8100643537602e-16
  17    6.7900385691015e-16
  18    8.3152811168166e-16
  19    1.8451258480331e-16
  20    7.6123239577108e-17
  21    -9.273865792067e-16
  22    6.8104588857814e-16
  23    -2.4742861693025e-16
  24    -1.0150414298196e-16
  25    1.6963226588995e-15
  26    2.7676282456768e-15
  27      0.34882219505058
  28      0.56864161488346
 Sym= A
 Ene=     2.289304552
 Spin= Beta
 Occup=    0.00000
   1    1.2291418691982e-16
   2    -1.278557522864e-15
   3    2.5670287278069e-15
   4    1.5791723536887e-16
   5    4.4796965285435e-16
   6    1.9854689535073e-16
   7    -3.9868488539011e-16
   8    -3.6389503422268e-16
   9     1.04144835809e-15
  10    -1.8562655133515e-16
  11    -1.6089438565148e-15
  12    -1.7332489536059e-15
  13     -0.72948039960999
  14     -0.19575883137174
  15    -3.3951975426967e-17
  16    1.5121384589719e-15
  17    -3.1401187435239e-15
  18     4.02727489524e-16
  19    2.5508966091285e-16
  20    -7.608383841309e-16
  21    3.5990930180737e-16
  22    3.5960092460928e-16
  23    1.173922532469e-15
  24    -2.1944177856506e-16
  25    3.0629334813197e-16
  26    1.0841883401622e-15
  27      0.72948039960999
  28      0.19575883137174
 Sym= A
 Ene=     2.289304552
 Spin= Beta
 Occup=    0.00000
   1    5.1473167875453e-18
   2    8.3836922694161e-17
   3    -3.007533839755e-16
   4    -1.344774348275e-15
   5    1.0367650942444e-15
   6    -7.515590734845e-18
   7    -3.4164165712943e-15
   8    7.3414977855265e-15
   9    -2.8221931909313e-16
  10    -8.092862449114e-17
  11    -5.0305977299427e-15
  12    1.3466336221551e-14
  13      0.19575883137174
  14     -0.72948039960998
  15    -1.492086768425e-17
  16    7.0186423077554e-17
  17    2.5537597856784e-16
  18    8.6242708795376e-16
  19    -1.5854837180017e-15
  20    -2.9960004918982e-17
  21    3.2708439778864e-15
  22    -6.8283041176827e-15
  23    -1.3115714476654e-16
  24    2.0143960229585e-17
  25    -6.4094117873215e-15
  26    1.1083987406024e-14
  27     -0.19575883137174
  28         0.72948039961
 Sym= A
 Ene=     2.859793997
 Spin= Beta
 Occup=    0.00000
   1     0.017049089156731
   2      -0.6347307394788
   3      0.25711649279671
   4    1.9551438211661e-16
   5    1.9938590839571e-16
   6     -0.46427231648464
   7    1.2168680824909e-15
   8    -2.9600599052264e-15
   9      0.44199411236297
  10      0.71109078948121
  11    2.6429757831345e-15
  12    -6.099224601483e-15
  13    -2.3673840625021e-16
  14    -6.3901213352483e-17
  15      0.01704908915675
  16      -0.6347307394788
  17      0.25711649279607
  18    -2.3633236185184e-17
  19    -1.1862633394521e-16
  20      0.46427231648481
  21    -1.2846951928018e-15
  22    3.0572922649872e-15
  23     -0.44199411236257
  24      0.71109078948086
  25    2.5459721753706e-15
  26    -6.0469391213529e-15
  27    2.2320008693762e-16
  28    9.286240422984e-17
 Sym= A
 Ene=     2.924894004
 Spin= Beta
 Occup=    0.00000
   1    8.0622311922234e-16
   2    -9.2191143646854e-15
   3    4.7643308257933e-15
   4     -0.01123403675614
   5     0.024449058225217
   6    -3.1821066107765e-15
   7     -0.20331006828582
   8      0.44247137562334
   9    3.7560653988406e-15
  10    3.4153884513856e-15
  11     -0.42573381264454
  12      0.92654056593684
  13    -2.649472322326e-15
  14    9.931433503924e-15
  15    1.5964252698497e-17
  16    -8.4328964297825e-16
  17    -3.2504978652952e-15
  18     0.011234036756142
  19    -0.024449058225217
  20    -6.9571317763643e-16
  21      0.20331006828582
  22     -0.44247137562334
  23    -3.7019269644099e-15
  24    5.8994631486149e-15
  25     -0.42573381264454
  26      0.92654056593684
  27    2.9497652207665e-15
  28    -9.4759373394766e-15
 Sym= A
 Ene=     2.924894004
 Spin= Beta
 Occup=    0.00000
   1    1.0008312111514e-17
   2    -1.2284348046938e-16
   3    -1.6192582766566e-16
   4     0.024449058225217
   5     0.011234036756141
   6    -5.1828316375521e-17
   7      0.44247137562334
   8      0.20331006828582
   9    -4.7448457905547e-17
  10    2.0273395792201e-17
  11      0.92654056593684
  12      0.42573381264454
  13    -4.0636304783142e-16
  14    -6.6414525505256e-16
  15    1.0422375537952e-17
  16    -1.7119669626563e-16
  17    2.4085978553435e-16
  18    -0.024449058225218
  19    -0.011234036756141
  20    7.857511238201e-17
  21     -0.44247137562333
  22     -0.20331006828581
  23    -2.4664870517528e-16
  24    2.1101203450082e-16
  25      0.92654056593684
  26      0.42573381264454
  27    5.8837045385246e-16
  28    -3.2276130665331e-16
 Sym= A
 Ene=     3.189812939
 Spin= Beta
 Occup=    0.00000
   1     0.071003568297302
   2      0.33579337789688
   3      -3.6018913674709
   4    -1.4678865861744e-16
   5    4.6739382490406e-16
   6     -0.56192165232614
   7    2.2736320300059e-16
   8    -8.3446095351776e-16
   9      -2.2036413476229
  10      -1.3065841367845
  11    4.2355755447095e-16
  12    -1.0746119202468e-15
  13    6.6684143679122e-17
  14    2.3161926441344e-17
  15    -0.071003568297296
  16     -0.33579337789707
  17       3.6018913674709
  18    -1.7289077889416e-16
  19    3.9529572287284e-16
  20     -0.56192165232601
  21    -1.1677482777251e-16
  22    3.4137783887066e-16
  23      -2.2036413476231
  24       1.3065841367847
  25    3.9546089282617e-16
  26    -1.025012737283e-15
  27    3.0323516852531e-17
  28    1.4498893424214e-17
