%chk=water.chk
%nprocshared=4
%mem=1GB
# HF/3-21G Opt

Water molecule - openWFN example

0 1
O   0.000000   0.000000   0.000000
H   0.000000   0.757000   0.586000
H   0.000000  -0.757000   0.586000

