[Molden Format]
made by pyscf v[2.12.1]
[Atoms] (AU)
N   1   7     0.00000000000000     0.00000000000000     0.18897261245651
H   2   1     0.00000000000000     1.77634255709116    -0.43463700864996
H   3   1     1.53823706539596    -0.88817127854558    -0.43463700864996
H   4   1    -1.53823706539596    -0.88817127854558    -0.43463700864996
[GTO]
1 0
 s    6 1.00
              4173.511  0.0018347994430301
              627.4579   0.013994995751693
              142.9021   0.068586979179805
              40.23433    0.23224092950117
              12.82021    0.46906985760962
              4.390437    0.36045489058067
 s    3 1.00
             11.626358   -0.11496102288211
               2.71628   -0.16911803366165
              0.772218     1.1458522280731
 s    1 1.00
             0.2120313                   1
 p    3 1.00
             11.626358   0.067580023248036
               2.71628    0.32390711142648
              0.772218    0.74089525487354
 p    1 1.00
             0.2120313                   1
 d    1 1.00
                   0.8                   1

2 0
 s    3 1.00
             18.731137    0.03349459952309
             2.8253937    0.23472694665786
             0.6401217    0.81375731841339
 s    1 1.00
             0.1612778                   1

3 0
 s    3 1.00
             18.731137    0.03349459952309
             2.8253937    0.23472694665786
             0.6401217    0.81375731841339
 s    1 1.00
             0.1612778                   1

4 0
 s    3 1.00
             18.731137    0.03349459952309
             2.8253937    0.23472694665786
             0.6401217    0.81375731841339
 s    1 1.00
             0.1612778                   1

[5d]
[7f]
[9g]

[MO]
 Sym= A
 Ene=    -15.52459255
 Spin= Alpha
 Occup=    2.00000
   1      0.99599071559426
   2     0.023230921521481
   3    -0.010891868980115
   4    -6.0680682003042e-18
   5    -9.9068184521049e-08
   6    -0.0016035994343845
   7    5.0131137861036e-17
   8    1.4505225501157e-07
   9    0.0017061580850953
  10    0.00013150668805175
  11    -4.4697229314606e-18
  12    4.5433690627234e-08
  13    5.9893697933562e-08
  14    -6.0395647065747e-18
  15    -5.0852983384376e-05
  16    0.0023349359231482
  17    -5.0976176840448e-05
  18     0.002335235656818
  19    -5.0976176840441e-05
  20    0.0023352356568181
 Sym= A
 Ene=    -1.138236241
 Spin= Alpha
 Occup=    2.00000
   1     -0.20141309886494
   2      0.41426011742371
   3      0.45955268850814
   4    -1.1807466339205e-16
   5    -1.8432004638251e-05
   6    -0.080467020129818
   7    1.7055870176979e-16
   8    -4.7463295866548e-06
   9    -0.046229347159496
  10    -0.012296768210079
  11    -2.0925849436586e-17
  12    2.401409215618e-06
  13    -5.490076355262e-07
  14    -5.2792746430601e-17
  15       0.1383753392369
  16    0.0035778663875008
  17      0.13839477647029
  18     0.003576372698508
  19      0.13839477647029
  20    0.0035763726985079
 Sym= A
 Ene=   -0.6331204092
 Spin= Alpha
 Occup=    2.00000
   1    1.6236618381445e-14
   2    -2.8443678823275e-14
   3    -8.2589056627562e-14
   4      0.47312045421313
   5    -1.0671535019377e-09
   6    -3.3891341880369e-14
   7      0.27778524060299
   8    -6.2658207618932e-10
   9    -1.280251737371e-14
  10    1.7233953160725e-15
  11    -0.036010074323301
  12    8.1225184602002e-11
  13    5.7520583618796e-11
  14     -0.02550568259495
  15    -6.2758544711502e-10
  16    -3.5276196189527e-10
  17      0.24095877735112
  18      0.13543937287238
  19     -0.24095877672353
  20     -0.13543937251964
 Sym= A
 Ene=   -0.6331203437
 Spin= Alpha
 Occup=    2.00000
   1    -7.0934180706898e-06
   2    1.3193011652904e-05
   3    3.3679151022034e-05
   4    1.0671742016473e-09
   5      0.47311142124182
   6    1.4629784835364e-05
   7    6.2657396742205e-10
   8      0.27778872605517
   9    6.139445320394e-06
  10    -7.0235335405892e-07
  11    -8.1224686214327e-11
  12    -0.036010455549807
  13    -0.025501130350832
  14    -5.7530880610537e-11
  15      0.27823354193697
  16      0.15639416727444
  17     -0.13911670423783
  18    -0.078191115831967
  19     -0.13911670532484
  20    -0.078191116442965
 Sym= A
 Ene=    -0.412315496
 Spin= Alpha
 Occup=    2.00000
   1    -0.055731530672324
   2      0.13352491612357
   3      0.22866927304174
   4    7.0404870455425e-16
   5    -1.1366131419807e-05
   6       0.5612754201883
   7    -1.1617095103108e-15
   8    -9.5128997092315e-06
   9      0.50557431650603
  10    -0.025177793323164
  11    -8.7372490889382e-17
  12    -1.5149264337582e-06
  13    1.1639243253827e-06
  14    -1.146869581135e-16
  15    -0.059213185926269
  16    -0.038092998390442
  17    -0.059203858665421
  18    -0.038078859066444
  19    -0.059203858665421
  20    -0.038078859066449
 Sym= A
 Ene=    0.2280725494
 Spin= Alpha
 Occup=    0.00000
   1     -0.11568121177313
   2      0.10774518974781
   3       1.8835972686105
   4    -2.4606863181795e-15
   5    2.5149545350105e-05
   6     -0.13073997556145
   7    -1.9276408658631e-14
   8    3.7700207921264e-05
   9     -0.42832701493154
  10    -0.0027079118694594
  11    -1.0385919079579e-16
  12    8.9465315106328e-07
  13    1.1672272707777e-06
  14    -4.4812547519805e-16
  15    -0.030055612652361
  16     -0.96150153541734
  17    -0.030041185860345
  18      -0.9614254070951
  19    -0.030041185860337
  20     -0.96142540709516
 Sym= A
 Ene=    0.3273296888
 Spin= Alpha
 Occup=    0.00000
   1    -5.2561012157675e-06
   2    -3.1411793350144e-06
   3    0.00020588947906272
   4    -1.0563070485946e-10
   5     -0.32537617735335
   6    -3.9569626377656e-06
   7    -3.7426969677979e-10
   8      -1.1528089426574
   9    -3.8449407860233e-05
  10    -2.9660722888513e-06
  11     5.16820815192e-12
  12     0.015920075250423
  13    -0.0015619178634599
  14    -5.0607937227017e-13
  15     0.039474658924092
  16       1.8234799962681
  17    -0.019725853129222
  18     -0.91187262554838
  19    -0.019725853151412
  20     -0.91187262657388
 Sym= A
 Ene=    0.3273389614
 Spin= Alpha
 Occup=    0.00000
   1    3.8704581484305e-15
   2    1.9748785567202e-15
   3    -1.0631313090088e-13
   4     -0.32536876995947
   5    1.0563747920192e-10
   6    1.9374812440633e-15
   7      -1.1528073759086
   8    3.7426621064939e-10
   9    2.1967607779123e-14
  10    5.4308211733393e-16
  11      0.01591885354435
  12    -5.1684404531312e-12
  13    5.0789769490842e-13
  14    -0.0015599717861895
  15    -1.281686324603e-11
  16    -5.9198434851026e-10
  17     0.034180414232052
  18        1.579336774679
  19    -0.034180414219237
  20      -1.5793367740869
 Sym= A
 Ene=    0.9025350665
 Spin= Alpha
 Occup=    0.00000
   1    4.1546841993155e-16
   2    -8.123972498541e-15
   3    1.1423231396084e-14
   4     -0.37505489870266
   5    6.0145579763611e-13
   6    1.0619937330216e-14
   7       1.2871594365555
   8    -2.0607811026133e-12
   9    -1.1287096272475e-14
  10    -2.522745700622e-16
  11     0.073601485915023
  12    -1.176141940059e-13
  13    -2.3070485985305e-13
  14      0.14390710562187
  15    1.2222695679173e-12
  16    6.6376159499543e-14
  17     -0.66157166156958
  18    -0.037215772839195
  19      0.66157166156836
  20     0.037215772839122
 Sym= A
 Ene=    0.9025686038
 Spin= Alpha
 Occup=    0.00000
   1    -9.8310822589415e-07
   2    1.2360108161303e-05
   3    -0.00012742167519918
   4    -5.9956498316206e-13
   5     -0.37504866369528
   6    -3.673038285427e-05
   7    2.0622145585816e-12
   8       1.2871674595689
   9    5.9325257391233e-05
  10    1.3581741112792e-05
  11    1.1823157199358e-13
  12     0.073617469018969
  13       0.1439260315905
  14    2.3047675823244e-13
  15     -0.76398555950135
  16    -0.042886025232563
  17      0.38192871557543
  18     0.021556095634826
  19      0.38192871557755
  20     0.021556095634951
 Sym= A
 Ene=    0.9736856864
 Spin= Alpha
 Occup=    0.00000
   1     0.033718764437838
   2     -0.15771662448713
   3     -0.20413454447473
   4    -3.5211150134342e-15
   5    1.7014410732243e-05
   6     -0.97651324685612
   7    1.2903413171009e-14
   8    -7.895562294504e-06
   9       1.1227825767273
  10    -0.016993178500701
  11    9.6141770886588e-16
  12    -1.263915066544e-06
  13    -8.1354987939742e-06
  14    1.8198145922968e-15
  15       0.1166584426142
  16       0.1001991344479
  17      0.11663149215117
  18       0.1002416575309
  19      0.11663149215118
  20      0.10024165753091
 Sym= A
 Ene=     1.201659852
 Spin= Alpha
 Occup=    0.00000
   1     0.087542799553764
   2     -0.33624400150653
   3    -0.055063627031808
   4    -1.1788064012239e-14
   5    -0.00080721294322555
   6      0.28510166603957
   7    1.4562917537876e-14
   8    0.0011950364588442
   9     0.082024282895704
  10     -0.22926159060919
  11    -9.3122613151473e-16
  12    -3.3282253684097e-05
  13    -9.8787651137605e-05
  14    -2.3958560046494e-15
  15      0.74080044724979
  16     -0.33754923898178
  17      0.74022698876104
  18     -0.33582863203033
  19      0.74022698876103
  20      -0.3358286320303
 Sym= A
 Ene=     1.241880651
 Spin= Alpha
 Occup=    0.00000
   1    6.7240867306261e-05
   2    -0.00022900763727809
   3    -9.3351741863603e-05
   4    6.7199785308687e-11
   5       1.0271654419203
   6    0.00022804410198298
   7    -8.6010884446623e-11
   8      -1.3147718422211
   9    7.0471701461424e-05
  10    -0.0001971546800491
  11    4.9008703636889e-12
  12     0.074903691642992
  13      0.13693311636909
  14    8.9589916071327e-12
  15     -0.56394531771755
  16       1.3540025271892
  17      0.28285351102694
  18      -0.6773772573832
  19      0.28285351109092
  20     -0.67737725753665
 Sym= A
 Ene=      1.24190368
 Spin= Alpha
 Occup=    0.00000
   1    2.751569120637e-15
   2    8.4579299532025e-16
   3    -2.049800263671e-14
   4      -1.0271613061159
   5    6.7197988657615e-11
   6    1.0789707104847e-14
   7       1.3147413500981
   8    -8.6016338195063e-11
   9    5.7757627781278e-15
  10    -9.2842868629253e-15
  11    -0.074911242438983
  12    4.8999131376176e-12
  13    8.9578374985303e-12
  14      -0.1369498089172
  15    -3.6902999675469e-11
  16    8.8591169573562e-11
  17      0.48891638253753
  18      -1.1728579876528
  19     -0.48891638250054
  20       1.1728579875642
 Sym= A
 Ene=     1.463311831
 Spin= Alpha
 Occup=    0.00000
   1     0.025050275666378
   2      -1.8671709880808
   3        3.515234909754
   4    -3.9063762159523e-15
   5    2.9640638546622e-05
   6      0.13707241532754
   7    1.6257080445006e-15
   8    -0.00012721654000493
   9     -0.57969764054654
  10      0.17328285713245
  11    -2.4820916168599e-15
  12    -8.154721203707e-06
  13    1.8522348475075e-05
  14    -4.412609280705e-15
  15     -0.15963032735775
  16     -0.77515857885018
  17     -0.15961427483011
  18     -0.77534620875092
  19     -0.15961427483012
  20     -0.77534620875091
 Sym= A
 Ene=      1.96517121
 Spin= Alpha
 Occup=    0.00000
   1    -7.2192086027879e-08
   2    -6.8815022426532e-06
   3    1.1523039697741e-05
   4    1.6846951354339e-13
   5     0.022826016668872
   6    5.7613886709223e-06
   7    2.8037573417722e-13
   8     0.038101654207108
   9    -1.8042487218436e-06
  10    8.7100107694024e-05
  11    5.9643319613347e-12
  12      0.80935724039042
  13     -0.58622466363565
  14    -4.3211349710226e-12
  15    -0.039522201114612
  16    -0.00057697674158864
  17     0.019757348443208
  18    0.0002859622506371
  19     0.019757348443713
  20    0.00028596225064306
 Sym= A
 Ene=     1.965179545
 Spin= Alpha
 Occup=    0.00000
   1    -7.6526071993367e-18
   2    9.2162643570045e-16
   3    -1.9339530394732e-15
   4     0.022824296965216
   5    -1.6823521090983e-13
   6    -2.2622437026174e-16
   7     0.038095483273325
   8    -2.8079554778767e-13
   9    4.1038855315703e-16
  10    -3.2295036052166e-16
  11      0.80937940610622
  12    -5.9650766360489e-12
  13    4.3201927244306e-12
  14     -0.58619439826765
  15    2.9133136422898e-13
  16    4.6275862550889e-15
  17     -0.03422068417712
  18    -0.00049822233076297
  19     0.034220684176829
  20    0.00049822233076001
 Sym= A
 Ene=     2.330149758
 Spin= Alpha
 Occup=    0.00000
   1     -0.04129405511396
   2     -0.47674134691241
   3       1.4554337859821
   4    -8.2301897870639e-16
   5    -2.0180421005013e-05
   6    -0.044670670930628
   7    3.9404362961419e-15
   8    -2.3276167174659e-05
   9     -0.38895635643599
  10      -1.0261359328547
  11    -2.640206104357e-15
  12    4.1741639695706e-05
  13    -9.910452866652e-05
  14    -4.2475077512167e-15
  15     -0.52106157839339
  16     -0.18051153516065
  17     -0.52103435197883
  18     -0.18057347849719
  19     -0.52103435197883
  20     -0.18057347849719
 Sym= A
 Ene=     2.772031846
 Spin= Alpha
 Occup=    0.00000
   1    -7.0907641013472e-06
   2    -1.2892270513763e-05
   3    0.00019607797597192
   4    2.9312000588794e-13
   5     -0.11015486007188
   6    -2.015881656291e-05
   7    1.9031864274068e-12
   8     -0.71368995557258
   9    -5.5347383175216e-05
  10    -5.9166881078938e-05
  11    -1.8999176084434e-12
  12      0.71282608907779
  13      0.98625086435756
  14    -2.6292581889935e-12
  15      0.96837198459889
  16    0.0048437830933534
  17     -0.48428556834615
  18    -0.002474502107957
  19     -0.48428556834168
  20    -0.0024745021079334
 Sym= A
 Ene=     2.772102103
 Spin= Alpha
 Occup=    0.00000
   1    -2.8240362985604e-16
   2    -6.9326919128819e-15
   3    1.8632162929629e-14
   4     -0.11021258146101
   5    -2.934423806503e-13
   6    6.4405552993828e-16
   7     -0.71364231700899
   8    -1.9028645031995e-12
   9    -4.3037654520764e-15
  10    -3.5330812727915e-15
  11      0.71281301107498
  12    1.9007750092032e-12
  13    2.6283934374873e-12
  14      0.98631395892461
  15    2.5788676445009e-12
  16    9.1632676794921e-15
  17      0.83874516348185
  18    0.0041942332272232
  19     -0.83874516348443
  20    -0.0041942332272452
