[Molden Format]
made by pyscf v[2.12.1]
[Atoms] (AU)
N   1   7     0.00000000000000     0.00000000000000     0.00000000000000
H   2   1     1.11493841349339     1.11493841349339     1.11493841349339
H   3   1    -1.11493841349339    -1.11493841349339     1.11493841349339
H   4   1    -1.11493841349339     1.11493841349339    -1.11493841349339
H   5   1     1.11493841349339    -1.11493841349339    -1.11493841349339
[GTO]
1 0
 s    6 1.00
              4173.511  0.0018347994430301
              627.4579   0.013994995751693
              142.9021   0.068586979179805
              40.23433    0.23224092950117
              12.82021    0.46906985760962
              4.390437    0.36045489058067
 s    3 1.00
             11.626358   -0.11496102288211
               2.71628   -0.16911803366165
              0.772218     1.1458522280731
 s    1 1.00
             0.2120313                   1
 p    3 1.00
             11.626358   0.067580023248036
               2.71628    0.32390711142648
              0.772218    0.74089525487354
 p    1 1.00
             0.2120313                   1
 d    1 1.00
                   0.8                   1

2 0
 s    3 1.00
             18.731137    0.03349459952309
             2.8253937    0.23472694665786
             0.6401217    0.81375731841339
 s    1 1.00
             0.1612778                   1

3 0
 s    3 1.00
             18.731137    0.03349459952309
             2.8253937    0.23472694665786
             0.6401217    0.81375731841339
 s    1 1.00
             0.1612778                   1

4 0
 s    3 1.00
             18.731137    0.03349459952309
             2.8253937    0.23472694665786
             0.6401217    0.81375731841339
 s    1 1.00
             0.1612778                   1

5 0
 s    3 1.00
             18.731137    0.03349459952309
             2.8253937    0.23472694665786
             0.6401217    0.81375731841339
 s    1 1.00
             0.1612778                   1

[5d]
[7f]
[9g]

[MO]
 Sym= A
 Ene=    -15.93950027
 Spin= Alpha
 Occup=    2.00000
   1      0.99596509756638
   2     0.023881944707034
   3    -0.012045096592447
   4    3.0490956383361e-18
   5    1.0350855497912e-17
   6    3.7612631990241e-17
   7    1.1996304054952e-17
   8    -5.6765824042406e-17
   9    -1.7690924712026e-16
  10    9.2134650918026e-18
  11    -4.8585610074892e-19
  12    5.9515942983838e-18
  13    2.0942114560236e-18
  14    -2.3289997939743e-18
  15    0.00014051805069144
  16     0.001965295382535
  17    0.00014051805069147
  18    0.0019652953825349
  19    0.00014051805069151
  20    0.0019652953825347
  21    0.00014051805069151
  22    0.0019652953825346
 Sym= A
 Ene=    -1.551040545
 Spin= Alpha
 Occup=    2.00000
   1      -0.2071282201225
   2      0.43795362860877
   3      0.49171147883987
   4    2.1557284537086e-16
   5    6.503308744393e-16
   6    4.4884401769883e-16
   7    -1.7798743067425e-15
   8    -2.2629853469542e-15
   9    -5.2540950484828e-16
  10    -6.233213333288e-18
  11    -1.7549295544184e-16
  12    -1.859012962977e-16
  13    1.2957420493042e-17
  14    -8.1817887739088e-17
  15      0.11637733174349
  16     -0.01510480593693
  17      0.11637733174349
  18    -0.015104805936936
  19      0.11637733174349
  20    -0.015104805936932
  21      0.11637733174349
  22    -0.015104805936933
 Sym= A
 Ene=    -1.004683493
 Spin= Alpha
 Occup=    2.00000
   1    -5.9916396654575e-17
   2    -1.7718049211661e-15
   3    5.7926173136305e-15
   4      0.42496145462307
   5     0.027977458245474
   6      0.29532149205955
   7       0.2727888240929
   8     0.017959129828988
   9        0.189571081499
  10    2.206180455107e-17
  11    0.0019172010944716
  12     0.029121178870613
  13    -7.3456636097647e-17
  14     0.020237388358506
  15      0.23043238036675
  16     0.052932711988928
  17    -0.048539461964147
  18    -0.011150018743705
  19     -0.21320064591266
  20    -0.048974403545143
  21     0.031307727510054
  22     0.007191710299914
 Sym= A
 Ene=    -1.004683493
 Spin= Alpha
 Occup=    2.00000
   1    -7.5333707646866e-17
   2    -1.8030106104942e-15
   3    5.9109205647924e-15
   4      0.16554538157198
   5      0.40576535030729
   6     -0.27665676729063
   7      0.10626594360913
   8      0.26046657070615
   9     -0.17758992822889
  10    4.3453260118852e-17
  11     0.027805734419552
  12     0.011344268087179
  13    1.5438739814235e-16
  14    -0.018958357560175
  15     0.090740889130948
  16     0.020844125041553
  17      -0.2611379247391
  18    -0.059986094565361
  19      0.15917605135087
  20     0.036564392852598
  21     0.011220984257284
  22    0.0025775766712036
 Sym= A
 Ene=    -1.004683493
 Spin= Alpha
 Occup=    2.00000
   1    1.4989169474452e-16
   2    -7.8435903032715e-16
   3    5.1096840287693e-16
   4     -0.24615492780431
   5      0.32118764309611
   6      0.32378389273948
   7     -0.15801036204559
   8      0.20617493309146
   9      0.20784150279927
  10    4.0665563027086e-17
  11     0.022009908672609
  12    -0.016868169111551
  13    -8.8008487437991e-17
  14     0.022187820926614
  15      0.12281855315767
  16     0.028212697759078
  17      0.07660478298836
  18     0.017596914584849
  19     0.075005714050845
  20     0.017229591835391
  21     -0.27442905019688
  22    -0.063039204179319
 Sym= A
 Ene=  -0.06601308435
 Spin= Alpha
 Occup=    0.00000
   1     -0.12416346921829
   2      0.18698356575516
   3       1.8257932429314
   4    -2.7673635339311e-14
   5    -2.0447719123875e-14
   6    -1.0651133561308e-14
   7    -1.2929595822039e-13
   8    -8.4898459600598e-14
   9    -6.8594476932614e-14
  10    4.5882579058207e-16
  11    2.3598788851978e-16
  12    1.3884337386508e-16
  13    2.3112763816927e-16
  14    2.0129341900024e-16
  15    -0.048821070433148
  16     -0.73120385828282
  17    -0.048821070433173
  18      -0.7312038582832
  19     -0.04882107043317
  20     -0.73120385828316
  21    -0.048821070433161
  22     -0.73120385828309
 Sym= A
 Ene=     0.029772276
 Spin= Alpha
 Occup=    0.00000
   1    -1.5441624065736e-14
   2    5.7950146123868e-14
   3    1.4988361095484e-13
   4      0.28380682950186
   5       0.1900177559582
   6    -0.047155909270136
   7      0.87093158748299
   8      0.58311657311806
   9     -0.14470959346515
  10    1.0663659666868e-16
  11    -0.011741585239967
  12    -0.017537003652511
  13    4.3566165155397e-16
  14    0.0029138599467796
  15    -0.099650836913395
  16      -1.2590580974741
  17       0.1216778854708
  18        1.537363174568
  19     0.010891434284023
  20      0.13760996849756
  21    -0.032918482841442
  22     -0.41591504559173
 Sym= A
 Ene=     0.029772276
 Spin= Alpha
 Occup=    0.00000
   1    -4.7731709237263e-15
   2    1.3449345928764e-14
   3    5.993654047523e-14
   4      0.17743208370462
   5     -0.21453303272218
   6      0.20339660118511
   7      0.54449431890873
   8     -0.65834777508423
   9      0.62417287515492
  10    5.4187235578419e-17
  11     0.013256434262124
  12    -0.010963890845974
  13    7.5649615572676e-17
  14    -0.012568291411988
  15    -0.038839272340147
  16      -0.4907224249644
  17    -0.056169537373422
  18     -0.70968506689853
  19      0.13905003281705
  20       1.7568549868227
  21    -0.044041223103484
  22     -0.55644749495983
 Sym= A
 Ene=     0.029772276
 Spin= Alpha
 Occup=    0.00000
   1    -7.5684795939372e-15
   2    1.9367061328044e-14
   3    9.2218861992028e-14
   4    -0.082754353545448
   5      0.19169135119255
   6      0.27437727070158
   7     -0.25395224149808
   8      0.58825241483406
   9       0.8419946495325
  10    3.335779751345e-16
  11    -0.011845000107711
  12    0.0051135605261339
  13    1.0538098221205e-16
  14    -0.016954331954963
  15    -0.089525174387976
  16      -1.1311234228662
  17    -0.038639493801788
  18      -0.4881982837307
  19    -1.5983148955526e-05
  20    -0.00020194223883687
  21       0.1281806513387
  22       1.6195236488355
 Sym= A
 Ene=    0.5487678646
 Spin= Alpha
 Occup=    0.00000
   1    -1.9483386393499e-15
   2    2.2764177220224e-14
   3    -2.6240331704709e-14
   4     -0.27128179220833
   5     -0.30654775185398
   6     -0.11962264302454
   7      0.77235925977287
   8      0.87276404649066
   9      0.34057448259395
  10    -9.6893093410627e-17
  11     -0.13292984255668
  12     -0.11763728720452
  13    -1.6563241734102e-16
  14    -0.051872568000568
  15     -0.73226154372807
  16     0.057893613834599
  17       0.4810756907971
  18     -0.03803451172162
  19     0.088566867146564
  20    -0.007002219424235
  21      0.16261898578437
  22    -0.012856882688717
 Sym= A
 Ene=    0.5487678646
 Spin= Alpha
 Occup=    0.00000
   1    -1.109028145718e-15
   2    6.0267469618379e-15
   3    9.8988790928661e-17
   4     -0.12236064976681
   5      0.23788995691691
   6     -0.33213122626664
   7      0.34836978961953
   8     -0.67729024324139
   9      0.94560208401222
  10    5.3026514571653e-17
  11      0.10315741781673
  12    -0.053059863627328
  13    -1.9273478866802e-16
  14     -0.14402373316642
  15     -0.22741237120389
  16     0.017979537656256
  17     -0.47000296125682
  18     0.037159086358106
  19      0.72693813172078
  20    -0.057472737493783
  21    -0.029522799260092
  22    0.0023341134794247
 Sym= A
 Ene=    0.5487678646
 Spin= Alpha
 Occup=    0.00000
   1    9.6289386925833e-16
   2    -6.0720843965439e-15
   3    7.6568527405757e-15
   4     -0.30546517359521
   5      0.17695128116522
   6       0.2392784643237
   7      0.86968186638641
   8     -0.50379334132266
   9     -0.68124342618143
  10    1.0675763001996e-16
  11     0.076732273530754
  12     -0.13246039870455
  13    -2.0744353382075e-16
  14      0.10375952326313
  15      0.11629275512641
  16    -0.0091942666042171
  17      0.38614861909421
  18    -0.030529445698838
  19      0.25527283950431
  20    -0.020182224943138
  21     -0.75771421372491
  22     0.059905937246169
 Sym= A
 Ene=    0.8579902167
 Spin= Alpha
 Occup=    0.00000
   1    -5.0994804909789e-15
   2    1.0044745513708e-13
   3    -1.5821978051003e-13
   4      -0.8910989543369
   5    -0.097669251149509
   6      0.37801267299461
   7       1.2490843955041
   8      0.13690638614002
   9     -0.52987351050335
  10    1.7818348970089e-16
  11     0.016310813390112
  12      0.14881396739762
  13    2.5896018351698e-16
  14    -0.063128303900623
  15      0.21906343686458
  16     -0.55509904652615
  17     -0.49023168968985
  18       1.2422298646395
  19     -0.14900017687085
  20      0.37756120919605
  21      0.42016842969605
  22      -1.0646920273092
 Sym= A
 Ene=    0.8579902167
 Spin= Alpha
 Occup=    0.00000
   1    -7.5405207956558e-15
   2    8.5983227321364e-14
   3    -1.0632179501613e-13
   4     -0.37180600033706
   5      0.49971167189776
   6     -0.74735450294185
   7      0.52117340157963
   8     -0.70046322979161
   9       1.0475927987471
  10    4.0299312552175e-16
  11    -0.083452097085378
  12      0.06209178648803
  13    9.330095438674e-17
  14      0.12480857271122
  15      0.22218151575387
  16     -0.56300014879693
  17      0.31393494086734
  18     -0.79550010189263
  19     -0.58065082291081
  20       1.4713487689945
  21      0.04453436628944
  22     -0.11284851830482
 Sym= A
 Ene=    0.8579902167
 Spin= Alpha
 Occup=    0.00000
   1    1.3342207737358e-14
   2    -1.4328882543508e-13
   3    1.7129663971333e-13
   4      0.11913505646115
   5      0.82899889766754
   6      0.49503320693966
   7     -0.16699575199688
   8      -1.1620365863151
   9     -0.69390526274921
  10    -8.1256708314099e-16
  11     -0.13844322712954
  12    -0.019895613525117
  13    -9.1706335644302e-16
  14    -0.082670791116649
  15     -0.51762962667548
  16       1.3116552736224
  17      0.16251642702315
  18     -0.41181091183707
  19    -0.077054622647834
  20      0.19525370447241
  21      0.43216782230043
  22       -1.095098066258
 Sym= A
 Ene=    0.9088923901
 Spin= Alpha
 Occup=    0.00000
   1      0.10077365371982
   2      -1.0009915378253
   3       1.2119257823378
   4    -8.9608568044372e-14
   5    -7.5531901242501e-14
   6    -1.0047561361312e-13
   7    1.3699874840242e-13
   8    1.2186397564688e-13
   9    1.5239334558294e-13
  10    1.0028933120603e-16
  11    5.7179079189886e-15
  12    1.4627447691605e-14
  13       3.431701202e-16
  14    1.0061655502835e-14
  15      0.58427730675466
  16     -0.50087842146087
  17      0.58427730675456
  18     -0.50087842146055
  19      0.58427730675455
  20     -0.50087842146052
  21      0.58427730675457
  22     -0.50087842146055
 Sym= A
 Ene=     1.315274626
 Spin= Alpha
 Occup=    0.00000
   1    -0.041547871160576
   2        -1.77962216555
   3       3.9858896983023
   4    -2.4522782412329e-14
   5    -6.1784778443642e-15
   6    2.9285813217539e-17
   7    5.2476336565817e-14
   8    1.6295785386266e-14
   9    1.6157053744548e-15
  10    4.3457855893983e-15
  11    -4.0551525062177e-15
  12    -2.8061516035144e-15
  13    7.8055405690477e-16
  14    -4.1917210057029e-16
  15      -0.5184862982095
  16     -0.55008503981947
  17     -0.51848629820952
  18     -0.55008503981937
  19     -0.51848629820952
  20     -0.55008503981939
  21     -0.51848629820951
  22     -0.55008503981944
 Sym= A
 Ene=     1.534276116
 Spin= Alpha
 Occup=    0.00000
   1    2.0423873432451e-16
   2    7.7480527041874e-15
   3    -1.8160226738203e-14
   4    7.9199932201724e-16
   5    4.9331810998406e-16
   6    6.7315626947697e-16
   7    -8.3578080014278e-16
   8    -1.2480508961954e-15
   9    -1.3799041091169e-15
  10       0.9984777087668
  11    -3.6757961790849e-16
  12    7.5228238586972e-17
  13     0.055156732098542
  14    -7.9509019908327e-17
  15    1.241671370647e-15
  16    5.0714716966979e-15
  17    2.4524315803477e-15
  18    2.3957808116503e-15
  19    2.522978494452e-15
  20    2.0407654481655e-15
  21    2.1319027459153e-15
  22    1.7266282210991e-15
 Sym= A
 Ene=     1.534276116
 Spin= Alpha
 Occup=    0.00000
   1    1.5897765582022e-17
   2    1.2582653564717e-15
   3    -2.9583368670409e-15
   4    7.0218755848899e-17
   5    7.3498485650148e-16
   6    3.925984338712e-16
   7    -2.0221666029945e-16
   8    -1.1152169417438e-15
   9    -1.0443834194924e-15
  10    -0.055156732098543
  11    -1.4413137039018e-16
  12    -1.3451115997743e-16
  13      0.99847770876681
  14    -2.6074480657127e-16
  15    -5.7346783375325e-16
  16    2.6776749860596e-15
  17    7.2116410264783e-16
  18    -4.1089049460534e-16
  19    2.0797900448038e-16
  20    1.7855052047415e-16
  21    4.0217389782673e-17
  22    2.0647239503822e-17
 Sym= A
 Ene=     2.333409511
 Spin= Alpha
 Occup=    0.00000
   1    1.5651417364914e-16
   2    1.3663765686283e-14
   3    -3.0409286206916e-14
   4    -0.049099471437975
   5    -0.055617362642551
   6    -0.034264451210793
   7     -0.41831794827862
   8     -0.47384911380747
   9     -0.29192646090903
  10    1.3026779914215e-16
  11      -0.8096025101091
  12      -0.7147238458014
  13    -4.3157988674269e-18
  14     -0.49877564108993
  15      0.98198359230211
  16    -0.020772539439373
  17     -0.49778705004525
  18     0.010530014157614
  19     -0.19604557989099
  20    0.0041470800246849
  21     -0.28815096236586
  22    0.0060954452570965
 Sym= A
 Ene=     2.333409511
 Spin= Alpha
 Occup=    0.00000
   1    -1.6902276138914e-16
   2    1.7762199861532e-15
   3    -1.830662498161e-15
   4     0.031788889665552
   5    -0.057788828123761
   6     0.048249555205121
   7      0.27083515796598
   8     -0.49234957742254
   9      0.41107682725791
  10    -1.4521432041183e-16
  11      -0.8412117742071
  12      0.46273975686728
  13    6.6635706703774e-17
  14      0.70235191223954
  15     -0.15720647952481
  16    0.0033254912013277
  17     -0.52461584566079
  18      0.01109754117069
  19      0.97382982441545
  20     -0.02060005746887
  21     -0.29200749922986
  22     0.006177025096855
 Sym= A
 Ene=     2.333409511
 Spin= Alpha
 Occup=    0.00000
   1    4.7366893490542e-16
   2    1.8767906542113e-15
   3    -8.8671548439383e-15
   4     -0.05706846885909
   5     0.015660844688198
   6     0.056356273344759
   7     -0.48621225657582
   8      0.13342735117941
   9      0.48014448929436
  10    3.0040929071967e-16
  11      0.22796944277065
  12     -0.83072575615184
  13    1.983303234459e-16
  14      0.82035857495706
  15     -0.10562089841844
  16    0.0022342677568305
  17     -0.69075878150532
  18     0.014612071061471
  19     -0.11568504925887
  20    0.0024471613040311
  21      0.91206472918265
  22     -0.01929350012233
