[Molden Format]
made by pyscf v[2.12.1]
[Atoms] (AU)
O   1   8     0.00000000000000     0.00000000000000     0.00000000000000
H   2   1     0.00000000000000     0.00000000000000     1.83303434082811
[GTO]
1 0
 s    6 1.00
             5484.6717   0.001831099805527
             825.23495   0.013950098518422
             188.04696    0.06844509273075
               52.9645    0.23271427528445
              16.89757    0.47019295006289
             5.7996353    0.35852086192309
 s    3 1.00
             15.539616   -0.11077750382508
             3.5999336   -0.14802630511126
             1.0137618     1.1307670390447
 s    1 1.00
             0.2700058                   1
 s    1 1.00
                0.0845                   1
 p    3 1.00
             15.539616   0.070874299543311
             3.5999336    0.33975279781076
             1.0137618    0.72715859531445
 p    1 1.00
             0.2700058                   1
 p    1 1.00
                0.0845                   1
 d    1 1.00
                   0.8                   1

2 0
 s    3 1.00
             18.731137    0.03349459952309
             2.8253937    0.23472694665786
             0.6401217    0.81375731841339
 s    1 1.00
             0.1612778                   1

[5d]
[7f]
[9g]

[MO]
 Sym= A
 Ene=    -20.65200296
 Spin= Alpha
 Occup=    1.00000
   1      0.99558114656809
   2     0.022998029168994
   3    -0.0081817057604179
   4    0.0018091525721595
   5    1.0696219850408e-18
   6    -2.4213085439996e-19
   7    0.0012518765748766
   8    -7.5569190441503e-19
   9    1.064550679188e-19
  10    -0.0010564171894961
  11    3.0059838677228e-19
  12    -5.4655263320319e-20
  13    -0.00037325589364831
  14    -0.00034849479450505
  15    4.3424408900143e-20
  16    4.9763703157437e-19
  17    0.00016285295677931
  18    -5.1204880843698e-05
  19    0.00031171805223859
  20    0.0016148111303039
 Sym= A
 Ene=    -1.392933073
 Spin= Alpha
 Occup=    1.00000
   1     -0.22470568424706
   2      0.52068547819229
   3      0.51033286492709
   4      0.01112963935581
   5    2.6019891227538e-17
   6    1.2558664365564e-17
   7     0.087619885830544
   8    1.8224584183548e-17
   9    1.2694097663463e-18
  10     0.055488964635342
  11    1.8554021943677e-19
  12    3.7110930303447e-20
  13     0.013381255522418
  14     0.010566462988295
  15    -3.8868078053229e-18
  16    1.1916017820192e-17
  17     0.015684673290517
  18    -0.0049316379806455
  19      0.13614700435855
  20    -0.041272709257951
 Sym= A
 Ene=   -0.6856567373
 Spin= Alpha
 Occup=    1.00000
   1     0.060804422786782
   2     -0.15855986325361
   3     -0.21174960986284
   4    -0.041189145975128
   5    7.5238283927961e-16
   6    3.0968018652988e-16
   7      0.55818055483302
   8    5.4823360459172e-16
   9    2.6077168697397e-16
  10      0.32942517777752
  11    5.8708347129511e-17
  12    2.6781763669081e-17
  13    0.0080811085050315
  14     0.044917972688411
  15    5.2875677303032e-17
  16    -1.6741652550187e-18
  17    -0.0060891586829665
  18    0.0019145777329803
  19      0.25626405863475
  20       0.1355575659544
 Sym= A
 Ene=   -0.6580581517
 Spin= Alpha
 Occup=    1.00000
   1    -6.4628215947238e-17
   2    1.5481129405897e-16
   3    3.2806085255432e-16
   4    -4.2678815831156e-16
   5      0.68458836783306
   6     -0.10508936909756
   7    -6.1970836832541e-16
   8      0.43251202608765
   9    -0.066393789442451
  10    -5.2548562966632e-16
  11     0.028010989078055
  12    -0.0042998936416767
  13    -5.0352905014643e-17
  14    7.8618361478722e-17
  15     0.028003138867689
  16    -0.0042986885764242
  17    -1.4189257615384e-16
  18    -2.0219114746502e-17
  19    -1.907755293099e-16
  20    1.0456687441525e-16
 Sym= A
 Ene=   -0.5629569289
 Spin= Alpha
 Occup=    1.00000
   1    -5.8779628371559e-17
   2    1.1880922112132e-16
   3    3.858241087436e-16
   4    -7.4905335280641e-17
   5      0.10165150053305
   6      0.66219290719215
   7    -2.3305542220021e-16
   8     0.067794373020512
   9      0.44163591020602
  10    -3.5230136891815e-16
  11    0.0086877434490769
  12     0.056594954932444
  13    1.6356523850156e-16
  14    -9.1436109023132e-17
  15    0.0043121720178494
  16     0.028090974652005
  17    -3.2674136874068e-17
  18    9.7145867213886e-17
  19    -2.7061654067839e-16
  20    -3.2451987353107e-16
 Sym= A
 Ene=    0.1567969659
 Spin= Alpha
 Occup=    0.00000
   1     0.065003503444424
   2    -0.079383691989293
   3     -0.82090602540659
   4       1.4395370336521
   5    2.6758440469063e-16
   6    4.1535602138084e-16
   7     -0.17109779254741
   8    1.6315741117209e-16
   9    2.728382396731e-16
  10     -0.25444451864952
  11    -6.3701038965904e-16
  12    -8.3396633505709e-16
  13      0.67684779229357
  14    -0.013434956701034
  15    -4.9242606096402e-19
  16    2.0198832550736e-18
  17    -0.0028078093857921
  18    0.0008828427059273
  19     0.075796176046174
  20     -0.18483745785583
 Sym= A
 Ene=    0.2289643073
 Spin= Alpha
 Occup=    0.00000
   1    -8.4229669758876e-18
   2    1.2217757966538e-17
   3    -5.8274330474331e-17
   4    -2.3557452376451e-15
   5     -0.18499599983716
   6     0.028398251886752
   7    -6.3734393734255e-16
   8     -0.44706271842741
   9      0.06862742815117
  10    -1.2618355140142e-15
  11       1.2078941540532
  12     -0.18542067109307
  13    8.7256110646376e-16
  14    -7.3792683028908e-17
  15    -0.0043622789582947
  16    0.00066964202883867
  17    -4.5346615003619e-17
  18    -5.8480898299706e-17
  19    1.4561193271018e-16
  20    2.6595907005895e-15
 Sym= A
 Ene=    0.2419339096
 Spin= Alpha
 Occup=    0.00000
   1    -0.041949300139386
   2     0.059073039544761
   3      0.53880893343995
   4     -0.55061330226984
   5    8.8227797431945e-16
   6    4.9307857703627e-15
   7     -0.12819824611007
   8    2.3834261620062e-15
   9    1.1493172638238e-14
  10     -0.36996854539936
  11    -6.2945210164736e-15
  12    -2.953624853558e-14
  13       1.2132280475142
  14     -0.01673461817682
  15    1.7930410629542e-17
  16    1.3634754132348e-16
  17    0.0026983857470727
  18    -0.00084843728589118
  19    -0.0043595287768176
  20     -0.35091024001932
 Sym= A
 Ene=    0.2450462159
 Spin= Alpha
 Occup=    0.00000
   1    -9.510008572599e-16
   2    1.3558382513511e-15
   3    1.2077372953955e-14
   4    -1.4300150957251e-14
   5    -0.029780591015194
   6     -0.19400103332302
   7    -3.5837983492859e-15
   8    -0.073851549493811
   9     -0.48109444527127
  10    -9.8915029327917e-15
  11      0.18659416388173
  12       1.2155386905058
  13    2.9279379402714e-14
  14    -4.0198642495994e-16
  15    -0.00084478453010017
  16    -0.0055032175718438
  17    2.0395743890695e-16
  18    -7.6570362775749e-17
  19    1.2623570425365e-16
  20    -5.8467068009674e-15
 Sym= A
 Ene=    0.3486418487
 Spin= Alpha
 Occup=    0.00000
   1     0.028447936609644
   2    -0.038284753453948
   3     -0.52262660893138
   4      -2.0718665540069
   5    4.9165765501039e-17
   6    2.2099734816263e-16
   7     -0.25361482957917
   8    7.5262170832492e-16
   9    6.4739536792704e-16
  10     -0.66887668709683
  11    -1.4796527517311e-15
  12    -1.0725585287983e-15
  13      -1.2136783073312
  14    0.0071454737413717
  15    -1.1659864859273e-17
  16    1.3402144573536e-17
  17    -0.0047021000097096
  18    0.0014784531731814
  19      0.16973121332653
  20       3.1378486564235
 Sym= A
 Ene=     1.250901305
 Spin= Alpha
 Occup=    0.00000
   1    -0.037586837023662
   2      0.32622952782749
   3     -0.52616173502674
   4      -1.1896083819203
   5    1.0803682998951e-16
   6    1.9904830194994e-17
   7      0.53233599390088
   8    -2.3344573979962e-16
   9    -1.9520735995909e-16
  10      -0.3253462240794
  11    9.0752331099718e-17
  12    7.2875718098859e-17
  13     -0.77315013101893
  14     -0.23512432301415
  15    9.718177026821e-19
  16    -2.2779636268688e-18
  17     0.018233041746772
  18    -0.005732906227345
  19      -1.1574467867647
  20       2.5126491810745
 Sym= A
 Ene=     1.312666892
 Spin= Alpha
 Occup=    0.00000
   1    1.1327004335882e-17
   2    -1.4632414724696e-16
   3    1.2689060325021e-16
   4    -1.8675541870709e-16
   5     -0.94787430749145
   6      0.14550570479803
   7    6.5762558742705e-16
   8       1.4432554976561
   9     -0.22155037511866
  10    -1.0214226946873e-15
  11     -0.66676655173911
  12      0.10235358874037
  13    2.6670550831862e-16
  14    6.4584998642747e-17
  15     0.029794074206087
  16    -0.0045736103741798
  17    -1.352823648701e-16
  18    -1.3770231140077e-16
  19    1.4022299613789e-16
  20    1.7045372469768e-16
 Sym= A
 Ene=     1.371468574
 Spin= Alpha
 Occup=    0.00000
   1    -2.2782212168581e-17
   2    -1.0371013373359e-16
   3    4.5640532817564e-16
   4    2.5994190819364e-16
   5      -0.1476569687158
   6     -0.96188838205385
   7    -1.5519397361057e-15
   8      0.21944780197985
   9       1.4295586116084
  10    2.9370240349504e-15
  11    -0.099919118238398
  12     -0.65090757188417
  13    -7.9825599984179e-16
  14    -3.2407261575423e-16
  15    0.0043117499379808
  16     0.028088225078274
  17    1.1438004418248e-15
  18    -1.5945412655746e-16
  19    -1.1431395309436e-15
  20    -1.4363748277781e-16
 Sym= A
 Ene=     1.386198376
 Spin= Alpha
 Occup=    0.00000
   1    -0.010974783187608
   2    -0.088709769018569
   3      0.29438923804238
   4     -0.06538943416214
   5    -2.6731226212459e-16
   6    1.998029847722e-15
   7     -0.85289837540866
   8    4.4437351446636e-16
   9    -2.9544683148114e-15
  10       1.6206636939068
  11    -1.3126584753253e-16
  12    1.331435302267e-15
  13     -0.65455762532073
  14     -0.17077724969196
  15    3.6427412739074e-17
  16    -6.6634671288556e-17
  17     0.016769378774856
  18    -0.0052726954362455
  19     -0.53700910001817
  20     0.080191791144685
 Sym= A
 Ene=     1.630133791
 Spin= Alpha
 Occup=    0.00000
   1     0.073953689602562
   2      -1.6658425844612
   3       2.4000275619604
   4     -0.91093756332592
   5    1.4846239777868e-16
   6    1.9281206405575e-17
   7      0.12066085499647
   8    -2.1291484253094e-16
   9    4.517588749777e-18
  10    -0.030293976355567
  11    9.4830112289518e-17
  12    -5.1362590611321e-18
  13      0.10006176674577
  14     -0.14012216931895
  15    -3.5632362778027e-17
  16    -4.7957109762808e-17
  17      0.02678247494687
  18    -0.0084210533568163
  19     -0.20142959643471
  20    -0.084870034251023
 Sym= A
 Ene=     1.957063105
 Spin= Alpha
 Occup=    0.00000
   1    -6.0142604865245e-19
   2    -3.7474445352666e-17
   3    6.3903129765655e-17
   4    -5.3018210267508e-17
   5    0.0083674489534219
   6    -0.0012844651951281
   7    4.803109596975e-18
   8    -0.057780800166444
   9    0.0088697794481439
  10    -6.0496808898806e-17
  11     0.024657047373475
  12    -0.0037850388263085
  13    1.2673293267435e-17
  14    -4.2279627782477e-18
  15      0.98756624777168
  16     -0.15159871069513
  17    -6.55057026522e-17
  18    3.8957049955405e-16
  19    1.2538585773893e-17
  20    3.1823889573097e-17
 Sym= A
 Ene=      2.01218043
 Spin= Alpha
 Occup=    0.00000
   1    -2.0294030173608e-17
   2    -4.1208784773346e-16
   3    8.8430667538958e-16
   4    -4.5186573435103e-16
   5    0.0011421974350673
   6    0.0074406677338601
   7    -2.5394662991431e-17
   8    -0.0085810666109977
   9    -0.055900025244569
  10    3.8501120978643e-16
  11    0.0036344092211495
  12     0.023675794213155
  13    -1.9462280251982e-16
  14    1.9061772138602e-16
  15      0.15160512677434
  16      0.98760804432285
  17    -4.6884661585306e-14
  18    -1.2520429730007e-13
  19    -6.1367437966804e-16
  20    3.2982609637163e-16
 Sym= A
 Ene=      2.01602418
 Spin= Alpha
 Occup=    0.00000
   1    -4.6257320357064e-16
   2    -5.4417803675473e-15
   3    1.3196180866674e-14
   4    -7.015566721991e-15
   5    8.4284934235984e-18
   6    1.3780963733935e-15
   7    -4.9329487789377e-16
   8    -1.4035254879779e-15
   9    -7.8710196997893e-15
  10    6.112100918266e-15
  11    5.3352974130252e-16
  12    3.4203268027656e-15
  13    -3.1693965063638e-15
  14    3.0725939339967e-15
  15    2.0001209558926e-14
  16    1.3189723452202e-13
  17      0.29994666862704
  18      0.95395597171963
  19    -1.0067855720007e-14
  20    5.5575086386377e-15
 Sym= A
 Ene=     2.016978847
 Spin= Alpha
 Occup=    0.00000
   1    0.0037946807599843
   2     0.043090128466364
   3     -0.10563471666333
   4     0.055414331337925
   5    1.2543961237259e-16
   6    1.2057589104066e-15
   7    0.0042549149739104
   8    -1.989031336084e-16
   9    -2.1151438703224e-15
  10    -0.049860154969199
  11    9.0167243781503e-17
  12    6.7539485063311e-16
  13     0.025200070273829
  14    -0.025090728736991
  15    1.2623504598263e-15
  16    7.0366381590734e-15
  17      0.95261960100459
  18     -0.29952648157868
  19      0.08130200122134
  20    -0.043769847256779
 Sym= A
 Ene=     2.781531315
 Spin= Alpha
 Occup=    0.00000
   1     0.018841510773055
   2      0.35374598892041
   3     -0.85160449933928
   4      0.34215618037831
   5    -1.4689570751233e-17
   6    -2.3034164416714e-19
   7     0.066497274573295
   8    1.5427023930727e-17
   9    2.6373999377721e-17
  10     -0.84623054951067
  11    -7.1585102563883e-18
  12    -8.9054995997842e-18
  13      0.29567867828066
  14      -1.1673907197783
  15    -5.265917407627e-18
  16    1.6273402656608e-17
  17    -0.029942390465889
  18    0.0094146066875474
  19       1.3859405711005
  20     -0.44972824163303
 Sym= A
 Ene=    -20.61108581
 Spin= Beta
 Occup=    1.00000
   1      0.99615549873272
   2     0.020224875974458
   3    -0.0073117464058473
   4    0.0015947510856341
   5    1.3576379573989e-18
   6    -1.0385554343044e-19
   7     0.001165919435439
   8    -7.1548248637335e-19
   9    1.1852298767089e-19
  10    -0.00087839002470077
  11    2.9876746808452e-19
  12    -4.0339044866617e-20
  13    -0.00032847095908726
  14    0.00021208474275831
  15    2.5606446891033e-19
  16    -4.143789816855e-19
  17    -0.0006360634446052
  18    0.00019999362329159
  19    9.7070427740456e-05
  20    0.0014490279918035
 Sym= A
 Ene=    -1.235053168
 Spin= Beta
 Occup=    1.00000
   1     -0.21478343325956
   2      0.48048335586111
   3      0.50163293890243
   4     0.010446550428681
   5    4.1114425256239e-17
   6    -4.7365465297808e-18
   7     0.099154787541935
   8    1.7261342275681e-17
   9    1.1166365919788e-17
  10     0.058915612409486
  11    -5.0825511334031e-18
  12    2.8966762206716e-18
  13    0.0060850285282495
  14     0.032957048103964
  15    1.1710964067592e-17
  16    -1.2922941846838e-17
  17    -0.018964195432412
  18     0.005962798506196
  19      0.17213873354338
  20    -0.0098884246458343
 Sym= A
 Ene=   -0.6401356677
 Spin= Beta
 Occup=    1.00000
   1       0.0726136695859
   2     -0.17885647161433
   3     -0.25981102190823
   4    -0.056148415938482
   5    2.1375761936986e-16
   6    6.7276751314767e-18
   7      0.52605013081069
   8    4.7584157613728e-17
   9    2.665918667187e-17
  10      0.32055888753162
  11    -9.7006583739107e-18
  12    5.463484145869e-17
  13     0.017117943043471
  14     0.033165411648438
  15    1.3909422061875e-17
  16    1.0049762705455e-17
  17    0.0073567110916871
  18    -0.0023131266530324
  19      0.26869228428864
  20      0.16329066307582
 Sym= A
 Ene=   -0.5120178722
 Spin= Beta
 Occup=    1.00000
   1    -3.9095347627356e-18
   2    -3.6737747667933e-17
   3    9.8773776335291e-17
   4    -5.284883674282e-17
   5     0.098219030661263
   6      0.63983261549618
   7    -8.0671430126334e-17
   8     0.069455036172256
   9          0.4524540423
  10    1.6071521717009e-16
  11     0.012228387205668
  12     0.079659928594552
  13    5.8668918658531e-17
  14    -2.3551262223868e-16
  15    0.0040694965227181
  16     0.026510102842119
  17    3.4290787308219e-17
  18    1.5444869343625e-17
  19    -1.5241278618893e-16
  20    7.071854465859e-17
 Sym= A
 Ene=   0.07136527615
 Spin= Beta
 Occup=    0.00000
   1    2.3492721763853e-17
   2    -6.4904355698821e-17
   3    -1.7879066647909e-16
   4    2.7400474852173e-15
   5      0.39747026274116
   6    -0.061014620039086
   7    -1.463784123767e-16
   8      0.28989857133274
   9    -0.044501571155927
  10    4.5733212688108e-17
  11      0.56778617085226
  12    -0.087159369455922
  13    2.3043879823024e-15
  14    -1.0701409487498e-16
  15     0.021496469035428
  16    -0.0032998667153946
  17    1.8323049382449e-17
  18    -1.0466831520912e-16
  19    -3.1474230114932e-16
  20    -2.4276768090641e-15
 Sym= A
 Ene=    0.1666096267
 Spin= Beta
 Occup=    0.00000
   1     0.065936133824325
   2    -0.066227911342627
   3     -0.83303901408736
   4       1.4817944433267
   5    -5.5954514889965e-16
   6    2.0047140752848e-16
   7     -0.16741545593276
   8    -3.818146382916e-16
   9    9.3574798970923e-17
  10     -0.26178296916364
  11    -5.9769752593302e-16
  12    1.029382759745e-16
  13       0.7295051332171
  14    -0.017830377199729
  15    -3.1635218213646e-17
  16    1.2923020460346e-17
  17    0.0009841175337632
  18    -0.00030943018812254
  19     0.059806838042784
  20     -0.25485416345597
 Sym= A
 Ene=      0.24691169
 Spin= Beta
 Occup=    0.00000
   1    -0.046918998524139
   2     0.059157655690506
   3      0.59271956086033
   4     -0.54600420563605
   5    -6.7826215103394e-16
   6    -2.115461055334e-15
   7     -0.12387230780609
   8    -1.4027680643171e-15
   9    -5.4141225183162e-15
  10     -0.36334669385289
  11    2.1752803708672e-15
  12    1.3069431384142e-14
  13       1.2251016439249
  14     -0.01362523334011
  15    -3.3127503546522e-17
  16    -6.8021971287503e-17
  17    -0.0017640741021165
  18    0.00055466726539539
  19    -0.014672821359791
  20     -0.41077723543763
 Sym= A
 Ene=    0.2497297502
 Spin= Beta
 Occup=    0.00000
   1    5.1104778967623e-16
   2    -6.3707683056647e-16
   3    -6.5412512192748e-15
   4    5.1577886443976e-15
   5    -0.031395465968638
   6     -0.20452088531312
   7    1.2680862291882e-15
   8    -0.077552261021715
   9     -0.50520215556092
  10    3.5630485153597e-15
  11      0.18710234436755
  12       1.2188491533279
  13    -1.3526158766413e-14
  14    1.3850367116908e-16
  15    -0.00091252510853654
  16    -0.0059445030455916
  17    -2.5334899518923e-17
  18    -1.5125808308153e-16
  19    2.0316977609067e-16
  20    5.4765041267903e-15
 Sym= A
 Ene=    0.3142959112
 Spin= Beta
 Occup=    0.00000
   1    1.3833391194431e-16
   2    -1.6018235085139e-16
   3    -2.1937750228692e-15
   4    -7.8212163771908e-15
   5     -0.37955987183225
   6     0.058265242793795
   7    -9.6302282324975e-16
   8      -0.7775551823884
   9      0.11936046154916
  10    -2.4681014275016e-15
  11       1.1086891599721
  12     -0.17019197202483
  13    -4.9635283915302e-15
  14    1.7709423758465e-16
  15    -0.017970343568251
  16    0.0027585804211539
  17    -4.8763652599257e-17
  18    -1.8129295246711e-17
  19    8.085164709303e-16
  20    1.1919763928694e-14
 Sym= A
 Ene=    0.3556662788
 Spin= Beta
 Occup=    0.00000
   1     0.033375579089965
   2    -0.042827133142614
   3     -0.55545690893816
   4      -2.0553443021486
   5    1.9451115380887e-15
   6    -2.3971115003915e-16
   7     -0.26253471750156
   8    2.9665854208731e-15
   9    -3.8428489797099e-16
  10     -0.70680554081701
  11    -3.8206634414201e-15
  12    1.3255372938898e-16
  13      -1.1765394984125
  14    -0.0017007181924609
  15    8.0592875904623e-17
  16    -9.1627420512696e-18
  17    0.0055428489917319
  18    -0.0017428048453604
  19      0.15542601812482
  20       3.1519093470684
 Sym= A
 Ene=     1.266791179
 Spin= Beta
 Occup=    0.00000
   1    -0.042847583752507
   2      0.30184466561885
   3      -0.4334081136275
   4      -1.2001137492922
   5    5.8928004466647e-16
   6    -6.6299200423942e-16
   7      0.50606069274402
   8    -9.5167455625695e-16
   9    1.0659166960263e-15
  10     -0.22420831537422
  11    4.8024049643698e-16
  12    -5.2133785755857e-16
  13     -0.79598825861504
  14     -0.22781820606376
  15    -1.0652135280724e-17
  16    9.027053848043e-18
  17    -0.016655273692628
  18    0.0052368180579364
  19      -1.1994202238191
  20       2.4814044901547
 Sym= A
 Ene=     1.395294916
 Spin= Beta
 Occup=    0.00000
   1    3.4913303113868e-17
   2    -3.3381435012143e-16
   3    4.8659664074874e-16
   4    7.078454019162e-16
   5     -0.14963009767595
   6     -0.97474202411087
   7    -1.2833308449445e-16
   8      0.21764819581214
   9        1.417835356824
  10    -2.0369317018655e-16
  11     -0.09859116892057
  12     -0.64225685236944
  13    7.1391024310546e-16
  14    1.5950824005771e-16
  15    0.0042873412687033
  16     0.027929218594513
  17    -5.9322482860443e-17
  18    -9.4045448507921e-17
  19    8.7712333181185e-16
  20    -1.7115075911731e-15
 Sym= A
 Ene=     1.410280911
 Spin= Beta
 Occup=    0.00000
   1    -0.012303509923758
   2    -0.078376605317191
   3      0.29413424600662
   4    -0.0079967992413489
   5    2.1267765674437e-15
   6    -5.2877504807475e-16
   7     -0.88863159326157
   8    -2.7511213125878e-15
   9    6.2556940400407e-16
  10       1.6280174800027
  11    1.2354144483717e-15
  12    -2.7385712021476e-16
  13     -0.61863691042212
  14     -0.15094786697231
  15    -2.4361237544234e-17
  16    -4.0140681281342e-18
  17    -0.0099017477719399
  18    0.0031133473093378
  19     -0.49212814609013
  20    -0.017524836474806
 Sym= A
 Ene=     1.485272523
 Spin= Beta
 Occup=    0.00000
   1    -5.7855071458251e-17
   2    4.1189020519706e-17
   3    4.1356179688813e-16
   4    -8.5936501447021e-16
   5       -1.048458305874
   6      0.16094609120828
   7    -1.4551816037637e-15
   8       1.3348282609258
   9     -0.20490599371166
  10    3.2573382382001e-15
  11     -0.59405348179119
  12     0.091191595628839
  13    -1.7874947551524e-15
  14    -3.9252166713693e-16
  15      0.02441544738217
  16    -0.0037479514437975
  17    -4.3348193683454e-16
  18    -3.0380850567645e-16
  19    -1.8556935827935e-15
  20    1.5080455911993e-15
 Sym= A
 Ene=     1.675018556
 Spin= Beta
 Occup=    0.00000
   1     0.076787600024443
   2      -1.6776540382771
   3       2.3936240079038
   4     -0.87527470143228
   5    -5.5428729911848e-17
   6    1.1014167270943e-16
   7      0.10136613834478
   8    -4.9319428213389e-17
   9    -1.3444824462278e-16
  10    -0.0056288075401702
  11    2.6742933174511e-17
  12    5.1393642986915e-17
  13      0.10378377155182
  14     -0.14200266808882
  15    -9.6275457522802e-18
  16    3.6189870442531e-17
  17     0.012330790901939
  18    -0.0038770968076313
  19      -0.1846210745626
  20     -0.12468303940874
 Sym= A
 Ene=     2.024654233
 Spin= Beta
 Occup=    0.00000
   1    -7.6284142023696e-18
   2    7.783332535801e-17
   3    -7.6876285734456e-17
   4    5.4609736368303e-18
   5    0.0014059833582318
   6     0.009159060147357
   7    -1.0862621136221e-17
   8    -0.0084857818896037
   9    -0.055279307730908
  10    9.0720664618697e-18
  11    0.0035859015953256
  12     0.023359798821085
  13    -1.9958651436689e-17
  14    -7.0161358591082e-19
  15      0.15161213454413
  16      0.98765369535042
  17    2.1874128864386e-16
  18    3.9763047401127e-16
  19    -9.712462184003e-18
  20    3.1009356000093e-17
 Sym= A
 Ene=     2.056067627
 Spin= Beta
 Occup=    0.00000
   1    2.5188154294609e-18
   2    -3.054242674436e-17
   3    3.6280695083257e-17
   4    -2.1940602152143e-17
   5     0.010360748404099
   6    -0.0015904513782672
   7    1.0011746451769e-17
   8    -0.053451378041213
   9    0.0082051811857792
  10    -3.4084388704706e-17
  11     0.022498420594202
  12    -0.0034536736775423
  13    1.2247149131857e-17
  14    3.1102518065034e-17
  15      0.98772305853411
  16     -0.15162278230497
  17    7.9121366804314e-17
  18    -3.1589421656402e-16
  19    -1.1468000919649e-17
  20    7.5120747748429e-18
 Sym= A
 Ene=     2.114545748
 Spin= Beta
 Occup=    0.00000
   1    -2.8275324596333e-15
   2    1.2595461815086e-14
   3    -2.8743504790893e-16
   4    -2.794630343906e-15
   5    -8.4144617074905e-16
   6    -1.2139310410255e-16
   7    -1.4513664360424e-15
   8    1.0737550608626e-15
   9    6.5366730391185e-17
  10    1.3448469394519e-14
  11    -3.534968912438e-16
  12    2.2345469590282e-29
  13    -7.9930859131341e-15
  14    8.3194286892037e-15
  15    2.2569490075499e-16
  16    -4.7420385295026e-16
  17      0.29994666862757
  18      0.95395597171946
  19    -2.1228919965634e-14
  20    1.3909653030656e-14
 Sym= A
 Ene=     2.115979814
 Spin= Beta
 Occup=    0.00000
   1    -0.0066771341793677
   2     0.030201674145447
   3    -0.0015238252908087
   4    -0.0062494304835683
   5    -2.319008157487e-16
   6    -5.3584481595211e-18
   7    -0.0035901225852091
   8    2.1159289802507e-16
   9    -6.1294466227952e-17
  10     0.032010130153483
  11    -2.2977788741304e-16
  12    3.6888580104866e-19
  13    -0.018992601600888
  14     0.019775031836816
  15    -1.7900934785724e-16
  16    -7.3973379633603e-17
  17      0.95325897433622
  18     -0.29972751591052
  19     -0.05025190821877
  20     0.032990314038372
 Sym= A
 Ene=     2.810903836
 Spin= Beta
 Occup=    0.00000
   1     0.014708496911128
   2      0.37240982516952
   3     -0.85201395086088
   4      0.33356799590305
   5    -3.8932854308732e-16
   6    4.3374212018587e-17
   7     0.064655270042864
   8    9.1722900928354e-17
   9    -2.1417336691835e-17
  10      -0.8392884330762
  11    -2.6667005170922e-17
  12    2.4630922103479e-18
  13      0.28725772912085
  14      -1.1714176682898
  15    2.0441541784072e-17
  16    -8.6320333645338e-18
  17     0.018784636509576
  18    -0.0059063408683979
  19       1.3666276925599
  20     -0.43057565529234
