[Molden Format]
made by pyscf v[2.12.1]
[Atoms] (AU)
O   1   8     0.00000000000000     0.00000000000000     0.00000000000000
H   2   1     0.00000000000000    -1.43052267629575     1.10926923511969
H   3   1     0.00000000000000     1.43052267629575     1.10926923511969
[GTO]
1 0
 s    3 1.00
             130.70932    0.15432896872316
             23.808861    0.53532813557095
             6.4436083    0.44463453632131
 s    3 1.00
             5.0331513  -0.099967228656673
             1.1695961    0.39951282463148
              0.380389    0.70011546059208
 p    3 1.00
             5.0331513    0.15591626847816
             1.1695961    0.60768371406861
              0.380389    0.39195738617424

2 0
 s    3 1.00
            3.42525091    0.15432897070298
            0.62391373    0.53532814243847
             0.1688554    0.44463454202535

3 0
 s    3 1.00
            3.42525091    0.15432897070298
            0.62391373    0.53532814243847
             0.1688554    0.44463454202535

[5d]
[7f]
[9g]

[MO]
 Sym= A
 Ene=    -20.24196697
 Spin= Alpha
 Occup=    2.00000
   1      0.99413146098283
   2     0.026545603173716
   3    2.2414568260918e-19
   4    3.1628945722537e-18
   5    0.0043425825530796
   6    -0.005963167605775
   7    -0.005963167605775
 Sym= A
 Ene=    -1.268161048
 Spin= Alpha
 Occup=    2.00000
   1     -0.23280566693725
   2      0.83373463745586
   3    9.746941294597e-18
   4    1.0804335119447e-16
   5      0.12945595827836
   6      0.15865443456032
   7      0.15865443456032
 Sym= A
 Ene=   -0.6173854404
 Spin= Alpha
 Occup=    2.00000
   1    3.0476354054909e-17
   2    8.7478623774675e-17
   3    7.2364858869598e-16
   4      0.60656100787586
   5    -2.7500254341298e-16
   6     -0.44510881072598
   7      0.44510881072598
 Sym= A
 Ene=   -0.4531532826
 Spin= Alpha
 Occup=    2.00000
   1       0.1032042128817
   2     -0.53693874974373
   3    4.6887771389924e-16
   4    1.1903135434112e-15
   5      0.77626423359151
   6       0.2782314887499
   7       0.2782314887499
 Sym= A
 Ene=   -0.3912742191
 Spin= Alpha
 Occup=    2.00000
   1    -1.4414480011606e-17
   2    2.1227632415366e-17
   3                     1
   4    -5.6429054538789e-16
   5    -5.2974675921074e-16
   6    2.2969643708499e-16
   7    -6.7926083370344e-17
 Sym= A
 Ene=    0.6051359609
 Spin= Alpha
 Occup=    0.00000
   1     -0.13224314946112
   2      0.88326020436407
   3    2.2504779732687e-16
   4    -4.032114418338e-15
   5       0.7428313208721
   6     -0.79652149048654
   7     -0.79652149048653
 Sym= A
 Ene=    0.7412409353
 Spin= Alpha
 Occup=    0.00000
   1    -6.5357565098503e-16
   2    4.0961795717258e-15
   3    7.6132578841706e-17
   4      0.98988865880179
   5    2.5905972969108e-15
   6      0.83810913940274
   7     -0.83810913940275
