[Molden Format]
made by pyscf v[2.12.1]
[Atoms] (AU)
O   1   8     0.00000000000000     0.00000000000000     0.00000000000000
H   2   1     0.00000000000000    -1.43052267629575     1.10926923511969
H   3   1     0.00000000000000     1.43052267629575     1.10926923511969
[GTO]
1 0
 s    6 1.00
             5484.6717   0.001831099805527
             825.23495   0.013950098518422
             188.04696    0.06844509273075
               52.9645    0.23271427528445
              16.89757    0.47019295006289
             5.7996353    0.35852086192309
 s    3 1.00
             15.539616   -0.11077750382508
             3.5999336   -0.14802630511126
             1.0137618     1.1307670390447
 s    1 1.00
             0.2700058                   1
 p    3 1.00
             15.539616   0.070874299543311
             3.5999336    0.33975279781076
             1.0137618    0.72715859531445
 p    1 1.00
             0.2700058                   1
 d    1 1.00
                   0.8                   1

2 0
 s    3 1.00
             18.731137    0.03349459952309
             2.8253937    0.23472694665786
             0.6401217    0.81375731841339
 s    1 1.00
             0.1612778                   1

3 0
 s    3 1.00
             18.731137    0.03349459952309
             2.8253937    0.23472694665786
             0.6401217    0.81375731841339
 s    1 1.00
             0.1612778                   1

[6d]
[10f]
[15g]

[MO]
 Sym= A
 Ene=    -20.56057238
 Spin= Alpha
 Occup=    2.00000
   1      0.99463864063946
   2     0.021138399961399
   3    0.0040824304649704
   4    1.0571802193513e-19
   5    5.7478612123707e-18
   6    0.0013364819444955
   7    -1.8039047559267e-20
   8    2.4147735528817e-18
   9    -0.00047291723493833
  10    -0.0039116000483222
  11    -0.0041945288212769
  12    -0.0040703370094273
  13    -5.9901384661034e-19
  14    -8.1308298277969e-20
  15    6.2714477947775e-18
  16    0.00033193363379403
  17    -0.00019449659728351
  18    0.00033193363379401
  19    -0.0001944965972835
 Sym= A
 Ene=    -1.341516094
 Spin= Alpha
 Occup=    2.00000
   1     -0.20969220613141
   2      0.47587409663118
   3      0.43958242342111
   4    5.9268741060008e-17
   5    1.843334274881e-16
   6     0.093093988017156
   7    1.4271299349141e-17
   8    5.9860263091917e-16
   9     0.050817157211609
  10    -0.0012380392664168
  11     0.026294337088769
  12     0.021436293939299
  13    1.1933676802165e-19
  14    2.1701747428003e-18
  15    2.1900424626675e-16
  16      0.13088893505135
  17    0.0020076740686016
  18      0.13088893505135
  19    0.0020076740686015
 Sym= A
 Ene=   -0.7063612937
 Spin= Alpha
 Occup=    2.00000
   1    7.9827487392081e-16
   2    7.4008047291771e-16
   3    -8.5060263857115e-15
   4    -2.2702698317675e-16
   5       0.5075280106724
   6    2.8271941556624e-15
   7    -2.4514743681928e-17
   8      0.30673790968348
   9      6.7066595549e-16
  10    1.3368128987938e-15
  11    1.3901688881469e-15
  12    1.266071625043e-15
  13    4.5386379754589e-17
  14    -1.8806878807862e-16
  15      0.05117831591189
  16     -0.23083599423575
  17     -0.11113521143848
  18      0.23083599423575
  19      0.11113521143848
 Sym= A
 Ene=   -0.5710881447
 Spin= Alpha
 Occup=    2.00000
   1     0.073383900383252
   2     -0.16467632543413
   3      -0.3255292710549
   4    -1.3487378852044e-15
   5    -2.2687460433093e-15
   6      0.55521884479539
   7    -1.0772017481036e-15
   8    -6.0852916397882e-16
   9      0.40301591300655
  10    -0.011845313156345
  11    -0.00020032099233713
  12     0.046371000192772
  13    1.1631528815322e-17
  14    -6.4562982193597e-17
  15    -3.1804347446181e-17
  16      0.14149357992499
  17     0.085772188768593
  18      0.14149357992499
  19      0.08577218876859
 Sym= A
 Ene=   -0.4978976257
 Spin= Alpha
 Occup=    2.00000
   1    1.7852824292137e-16
   2    -5.2521376050561e-16
   3    -7.3463584614873e-16
   4      0.63965127835732
   5    -1.1597084854798e-16
   6    1.1075211052557e-15
   7      0.51143233703208
   8    -3.1709067410501e-16
   9    7.6945975905561e-16
  10    -1.0346517174489e-16
  11    -1.219043207818e-16
  12    1.2966023015282e-16
  13    9.4807074146386e-17
  14     0.033910743712859
  15    -1.230339632279e-16
  16    1.2546837560823e-16
  17    -4.1367753658686e-16
  18    2.2931915759162e-16
  19    1.3882925548849e-15
 Sym= A
 Ene=    0.2105821571
 Spin= Alpha
 Occup=    0.00000
   1     -0.10062128920475
   2     0.056959338479795
   3       1.4131567099466
   4    1.8041542339854e-16
   5    3.8970532147485e-15
   6      0.21756259616915
   7    1.9017353003182e-16
   8    1.1287267928429e-14
   9      0.50875505115259
  10    -0.071565098568991
  11    -0.056025712288881
  12    -0.043176704255853
  13    -1.2730896110586e-17
  14    1.622993257666e-17
  15    1.0585822864404e-15
  16    -0.055319196052978
  17      -1.0404556299502
  18    -0.055319196052986
  19      -1.0404556299502
 Sym= A
 Ene=    0.3039660393
 Spin= Alpha
 Occup=    0.00000
   1    5.3135329430574e-17
   2    -1.0456952177743e-14
   3    1.2998037553463e-14
   4    2.4005941677756e-16
   5      0.32962257889184
   6    -4.2768960291309e-15
   7    4.0388954209139e-16
   8      0.83312112276388
   9    -3.6895021955799e-15
  10    -3.8727556255684e-15
  11    -6.1673101025739e-15
  12    -5.5622003953643e-15
  13    9.9173879276067e-19
  14    -2.822889898549e-17
  15     0.022462037317646
  16     0.050300412491853
  17        1.393200670159
  18    -0.050300412491845
  19       -1.393200670159
 Sym= A
 Ene=     1.021884697
 Spin= Alpha
 Occup=    0.00000
   1    -1.5898540574335e-15
   2    -4.3044552098837e-14
   3    9.3864458325779e-14
   4    -1.0791072006273e-15
   5     0.096246020732357
   6    4.372072359414e-15
   7    3.8656988297631e-16
   8       0.6581790855941
   9    -4.6531517752023e-15
  10    -1.7325052244226e-14
  11    -1.4419317027048e-14
  12    -1.6971861730646e-14
  13    3.3868852086762e-16
  14    -1.7559446192873e-17
  15     -0.19805210422119
  16      0.83885656618749
  17     -0.46291049045829
  18     -0.83885656618747
  19      0.46291049045825
 Sym= A
 Ene=     1.131657476
 Spin= Alpha
 Occup=    0.00000
   1    0.0036303502076321
   2     -0.92384871552846
   3       1.6408512717633
   4    -1.4261796532828e-15
   5    -1.9807273087566e-14
   6      0.41298266138531
   7    1.5206739377332e-15
   8    3.3654328910742e-15
   9     -0.70342010785997
  10     -0.38855771877404
  11     -0.18370999984983
  12     -0.31792815398391
  13    1.4844428156475e-17
  14    1.609333846665e-17
  15    9.3941281694024e-15
  16      0.55252351085048
  17     -0.47809095020523
  18      0.55252351085052
  19     -0.47809095020527
 Sym= A
 Ene=     1.167762016
 Spin= Alpha
 Occup=    0.00000
   1    -5.2306783477185e-15
   2    -9.2077537426749e-15
   3    4.6518128640264e-14
   4     -0.96272157696229
   5    -3.2118274809716e-16
   6    8.0065090438804e-14
   7       1.0360664450418
   8    -4.1731090783931e-16
   9    -3.8913558253007e-14
  10    6.3884585481936e-15
  11    -2.5973006196626e-14
  12    -8.5933634185234e-15
  13    -1.0749564830938e-16
  14     0.014509159045088
  15    -2.048517752249e-17
  16    -7.0541457334756e-14
  17    3.841352478884e-14
  18    -6.9370695433304e-14
  19    3.8182976876887e-14
 Sym= A
 Ene=     1.171298365
 Spin= Alpha
 Occup=    0.00000
   1     -0.04961565163806
   2     -0.10316842450403
   3      0.47054385077157
   4    1.0150285036395e-13
   5    1.5339257684034e-14
   6      0.76409747809446
   7    -1.0941254183448e-13
   8    -2.0882863663218e-14
   9     -0.37630074615232
  10     0.055466711504965
  11     -0.24965771185532
  12    -0.087348431105647
  13    -1.2626233483245e-17
  14    -1.5515731583418e-15
  15    -1.1373801154101e-15
  16      -0.6572480699035
  17      0.35544164647153
  18      -0.6572480699035
  19      0.35544164647155
 Sym= A
 Ene=     1.380538127
 Spin= Alpha
 Occup=    0.00000
   1    -3.6928878663755e-15
   2    -2.8158136553782e-14
   3    8.8352077886846e-14
   4    3.2045563448019e-16
   5      -1.0370873942759
   6    -1.0621528728041e-14
   7    -3.7174848177113e-16
   8       1.5366729401459
   9    3.8507835919431e-14
  10    2.0940057388785e-16
  11    -2.4490599178795e-14
  12    -1.0344628001433e-14
  13    4.2395455691576e-16
  14    2.8574176733314e-16
  15     0.018207659418261
  16    -0.097722582756705
  17      0.91314302048602
  18     0.097722582756656
  19     -0.91314302048605
 Sym= A
 Ene=     1.434368281
 Spin= Alpha
 Occup=    0.00000
   1    -0.085893785407495
   2      -1.4160066824966
   3       3.5681362428735
   4    -4.0564420577084e-16
   5    2.8824787672191e-14
   6     -0.50693322505307
   7    2.6211617162187e-16
   8    -5.3503170404262e-14
   9       1.1761370863021
  10      -0.2754588110135
  11     -0.64444044099593
  12     -0.40223402176619
  13    7.1575670841541e-18
  14    3.148513547579e-18
  15    7.9695050904819e-15
  16     -0.32512869793625
  17     -0.78228502245774
  18     -0.32512869793624
  19     -0.78228502245768
 Sym= A
 Ene=     2.020020753
 Spin= Alpha
 Occup=    0.00000
   1     0.007210261666783
   2     0.077461302934671
   3     -0.22662263113617
   4    4.7518901513158e-17
   5    3.7310619408281e-16
   6    0.0049092559304109
   7    -1.5728642824776e-16
   8    -2.939948004641e-16
   9     -0.12940217225574
  10     -0.36501142206411
  11     -0.58220185018186
  12       1.0085501360923
  13    -5.0336017194497e-16
  14    -2.2928816590857e-16
  15    -1.1764396892921e-15
  16     0.076974091160591
  17     0.036307674606768
  18     0.076974091160592
  19     0.036307674606769
 Sym= A
 Ene=      2.03402407
 Spin= Alpha
 Occup=    0.00000
   1    6.6601954798764e-18
   2    6.940584509242e-17
   3    -1.9017521789295e-16
   4    3.0981708040257e-18
   5    7.2035548052187e-16
   6    7.6546092825131e-18
   7    -4.5294140256406e-17
   8    -3.0195134788346e-15
   9    -8.0528993652681e-17
  10    -1.4544902159126e-16
  11    -2.8958419968449e-16
  12    5.2462157411676e-16
  13                     1
  14    -3.1442725127454e-15
  15    -2.6062277247678e-15
  16    -2.1277933742249e-15
  17    -3.6617634957502e-16
  18    2.1971433672429e-15
  19    4.2184183546993e-16
 Sym= A
 Ene=      2.06780065
 Spin= Alpha
 Occup=    0.00000
   1    1.9370592242235e-18
   2    1.3730758542986e-17
   3    -5.264256777285e-17
   4    -0.0077280286935086
   5    6.7150901037605e-16
   6    1.2769044090378e-17
   7    -0.032397548931703
   8    -7.4761208096178e-16
   9    -4.9097078043543e-17
  10    -7.9657782566684e-17
  11    -1.3388277699365e-16
  12    2.2940996161635e-16
  13    3.5326696648027e-15
  14      0.99931954137035
  15    4.7300309294658e-17
  16    7.6619367943913e-17
  17    -3.8139267183945e-16
  18    -5.7804334815778e-17
  19    4.1796138432399e-16
 Sym= A
 Ene=     2.621355991
 Spin= Alpha
 Occup=    0.00000
   1    -0.057447769641475
   2     -0.48928228605674
   3        1.567946017063
   4    1.0444987111952e-16
   5    -3.0836383217436e-15
   6    -0.048035803799996
   7    -6.8594584542982e-17
   8    5.3222246834612e-15
   9      0.74021801307575
  10      -1.1348364931439
  11      0.75035854343888
  12     0.041210725132325
  13    1.6083881072642e-17
  14    1.132473856109e-18
  15    6.9548094430101e-18
  16     -0.84057474497969
  17      -0.1417764049957
  18     -0.84057474497969
  19     -0.14177640499572
 Sym= A
 Ene=     2.945920424
 Spin= Alpha
 Occup=    0.00000
   1    -3.029412355378e-15
   2    1.1512998427396e-14
   3    4.9266789994562e-15
   4    -3.8982023068352e-17
   5    -0.018406184812382
   6    5.790804790617e-16
   7    7.5409218745309e-17
   8      0.86325092934523
   9    -1.8560186150961e-15
  10    -9.8376497230343e-15
  11    -8.3107989311596e-15
  12    -7.7406798871913e-15
  13    2.773760606522e-15
  14    -5.1419342110201e-17
  15       1.2836780531952
  16      0.95152456586342
  17    -0.038960391175292
  18     -0.95152456586342
  19     0.038960391175296
 Sym= A
 Ene=     3.970023167
 Spin= Alpha
 Occup=    0.00000
   1     -0.46573837182709
   2      0.32708065663879
   3       3.6214146697856
   4    -1.3619104051793e-17
   5    7.966383737282e-16
   6     -0.11618106931525
   7    1.7431549045732e-17
   8    -1.0449009495213e-14
   9      0.31819687548829
  10      -1.5610718151201
  11      -1.5259971544364
  12      -1.5429905075635
  13    7.9206266939263e-18
  14    1.9349671745165e-18
  15    -9.2704153969821e-15
  16      0.12819187041212
  17     -0.54502381112685
  18      0.12819187041214
  19     -0.54502381112684
