[Molden Format]
made by pyscf v[2.12.1]
[Atoms] (AU)
O   1   8     0.00000000000000     0.00000000000000     0.00000000000000
H   2   1     0.00000000000000    -1.43052267629575     1.10926923511969
H   3   1     0.00000000000000     1.43052267629575     1.10926923511969
O   4   8     0.00000000000000     0.00000000000000     5.48020576123868
H   5   1     0.00000000000000    -1.43052267629575     6.58947499635837
H   6   1     0.00000000000000     1.43052267629575     6.58947499635837
[GTO]
1 0
 s    6 1.00
             5484.6717   0.001831099805527
             825.23495   0.013950098518422
             188.04696    0.06844509273075
               52.9645    0.23271427528445
              16.89757    0.47019295006289
             5.7996353    0.35852086192309
 s    3 1.00
             15.539616   -0.11077750382508
             3.5999336   -0.14802630511126
             1.0137618     1.1307670390447
 s    1 1.00
             0.2700058                   1
 s    1 1.00
                0.0845                   1
 p    3 1.00
             15.539616   0.070874299543311
             3.5999336    0.33975279781076
             1.0137618    0.72715859531445
 p    1 1.00
             0.2700058                   1
 p    1 1.00
                0.0845                   1
 d    1 1.00
                   0.8                   1

2 0
 s    3 1.00
             18.731137    0.03349459952309
             2.8253937    0.23472694665786
             0.6401217    0.81375731841339
 s    1 1.00
             0.1612778                   1

3 0
 s    3 1.00
             18.731137    0.03349459952309
             2.8253937    0.23472694665786
             0.6401217    0.81375731841339
 s    1 1.00
             0.1612778                   1

4 0
 s    6 1.00
             5484.6717   0.001831099805527
             825.23495   0.013950098518422
             188.04696    0.06844509273075
               52.9645    0.23271427528445
              16.89757    0.47019295006289
             5.7996353    0.35852086192309
 s    3 1.00
             15.539616   -0.11077750382508
             3.5999336   -0.14802630511126
             1.0137618     1.1307670390447
 s    1 1.00
             0.2700058                   1
 s    1 1.00
                0.0845                   1
 p    3 1.00
             15.539616   0.070874299543311
             3.5999336    0.33975279781076
             1.0137618    0.72715859531445
 p    1 1.00
             0.2700058                   1
 p    1 1.00
                0.0845                   1
 d    1 1.00
                   0.8                   1

5 0
 s    3 1.00
             18.731137    0.03349459952309
             2.8253937    0.23472694665786
             0.6401217    0.81375731841339
 s    1 1.00
             0.1612778                   1

6 0
 s    3 1.00
             18.731137    0.03349459952309
             2.8253937    0.23472694665786
             0.6401217    0.81375731841339
 s    1 1.00
             0.1612778                   1

[5d]
[7f]
[9g]

[MO]
 Sym= A
 Ene=     -20.5985002
 Spin= Alpha
 Occup=    2.00000
   1    -8.2259646563137e-05
   2    -8.0313384016618e-05
   3    0.00032410202444866
   4    -0.00094112348508395
   5    5.5322521300364e-17
   6    2.5593004985325e-16
   7    -8.3886676769445e-06
   8    2.419775713059e-19
   9    -4.7986318990208e-17
  10    3.2510179721611e-05
  11    2.9928754810274e-19
  12    -6.0732744282909e-18
  13    -0.00058372562295395
  14    -4.5186700793893e-05
  15    -2.5708438905818e-20
  16    3.3555338311316e-18
  17    -2.6625254748887e-05
  18    -4.4379530567951e-21
  19    -8.3133420260818e-05
  20    8.064113637064e-05
  21    -8.3133420260844e-05
  22    8.0641136370858e-05
  23      0.99579200069312
  24     0.022312552201312
  25    -0.0090405903150053
  26    0.00092447573239486
  27    -3.6090627823275e-20
  28    1.8904597934638e-17
  29    0.0013938247106826
  30    9.5262455116589e-20
  31    -6.260740704031e-17
  32    -0.0011168757884303
  33    -7.8234274787705e-20
  34    -2.3232441516915e-16
  35    -0.0013804640923482
  36    1.1411722862353e-05
  37    2.9237104852222e-20
  38    8.5162949338699e-19
  39    0.00025304483713794
  40    1.7147465243998e-19
  41    0.00019388495719964
  42    0.0021208037460905
  43    0.00019388495719954
  44    0.0021208037460912
 Sym= A
 Ene=    -20.54174567
 Spin= Alpha
 Occup=    2.00000
   1      0.99579179728118
   2     0.022269915478169
   3    -0.008890317027006
   4    0.0012362224909559
   5    -7.3796676614345e-20
   6    3.698526629802e-17
   7    0.0014456754869955
   8    4.5441290641678e-20
   9    -1.1674595959947e-16
  10    -0.0014368156104172
  11    2.0125906833746e-20
  12    -3.0466968930996e-16
  13    6.0537405900636e-05
  14    1.9379163607303e-05
  15    -3.3856348178751e-19
  16    2.2097223174621e-17
  17    0.00024731429475937
  18    8.7384436616666e-20
  19    0.00023678896137577
  20    0.0018236977346073
  21    0.00023678896137551
  22    0.0018236977346085
  23    7.8164631606176e-05
  24    -5.5905811020773e-05
  25    0.00027205407303673
  26    -0.00083174288431693
  27    2.1000571148289e-21
  28    1.0886304530399e-17
  29    2.6827548311818e-05
  30    8.0017556492593e-22
  31    -4.4018946602513e-17
  32    -4.4997809041421e-05
  33    -4.5571085797883e-22
  34    -1.9286611915095e-16
  35    0.0005541142292677
  36    -6.5023953833459e-05
  37    6.7616183282487e-24
  38    3.8512890631928e-18
  39    2.1690299086771e-05
  40    2.2282547489605e-21
  41    2.0528175073388e-05
  42    3.2687865822769e-05
  43    2.0528175073355e-05
  44    3.2687865823153e-05
 Sym= A
 Ene=    -1.382258475
 Spin= Alpha
 Occup=    2.00000
   1    -0.012363738284938
   2     0.027251209140476
   3     0.024809158803333
   4     0.006596485408009
   5    1.3883483692565e-16
   6    1.7859762055378e-16
   7    0.0067000260004222
   8    -8.7565829095251e-17
   9    -4.1585714978205e-16
  10    0.0046051858642386
  11    1.0940089961223e-16
  12    -1.5057197222733e-15
  13    0.0042778560814152
  14    0.0010607598103761
  15    3.3286816136255e-18
  16    4.0690025402005e-17
  17    -0.00083828903949795
  18    -2.218313188045e-19
  19    0.0087824344893482
  20    0.0012046543694056
  21    0.0087824344893475
  22    0.0012046543694094
  23     -0.21423384129195
  24      0.46938774382228
  25      0.50283072296426
  26     0.045870089382403
  27    4.9660432992895e-19
  28    1.7806660547059e-16
  29     0.090390687137372
  30    2.1059565377617e-18
  31    2.3745767193455e-16
  32     0.056697204351959
  33    -6.1712422323365e-18
  34    1.0889310141136e-15
  35     0.027349480761182
  36    0.0062567637410736
  37    -1.6297102053945e-19
  38    -1.0710212655285e-16
  39    -0.017248186875677
  40    1.1619315816471e-18
  41       0.1322010521513
  42    -0.045377656820095
  43       0.1322010521513
  44    -0.045377656820098
 Sym= A
 Ene=    -1.324108726
 Spin= Alpha
 Occup=    2.00000
   1     -0.21412540554271
   2      0.46976180266414
   3      0.50087868914939
   4     0.043721160625074
   5    -2.665182727261e-18
   6    -2.644437199539e-16
   7     0.091559787550539
   8    -2.3537181227197e-17
   9    1.0953073844945e-16
  10     0.060489682254089
  11    1.6450257219906e-17
  12    -2.7372259423944e-15
  13     0.012716326927509
  14    0.0049516257231135
  15    -3.6476676868354e-18
  16    6.9030921820188e-16
  17    -0.017072329179349
  18    -5.0469028276879e-19
  19      0.13277334422883
  20    -0.043751105052061
  21      0.13277334422882
  22    -0.043751105052053
  23      0.01371056728474
  24    -0.030330513375924
  25    -0.035925832742048
  26    0.0010424608576069
  27    1.4736900478678e-19
  28    2.0125416698173e-17
  29    -0.010197323959501
  30    6.6060637023959e-20
  31    -3.0365728632199e-16
  32    -0.0099333441617647
  33    -3.8088858138252e-20
  34    -1.1068984198599e-15
  35    -0.0081320082370334
  36    0.00069522498008879
  37    4.2232921968332e-20
  38    9.358258147654e-18
  39    0.0011982418826664
  40    -1.0051925162388e-19
  41    -0.0096283630774287
  42    0.0049921518197289
  43    -0.0096283630774288
  44    0.0049921518197313
 Sym= A
 Ene=    -0.747316572
 Spin= Alpha
 Occup=    2.00000
   1    -4.7217188652104e-17
   2    1.6779640419962e-17
   3    1.6188309776497e-16
   4    -5.3662774450714e-15
   5    5.1546254517581e-18
   6     0.035031257211358
   7    -8.6272056469383e-17
   8    2.9537021754743e-17
   9     0.024012658162757
  10    -7.024162856977e-17
  11    2.5962182778914e-17
  12    0.0048336737789066
  13    -3.1544775413015e-15
  14    -4.250811146126e-17
  15    5.1284899364241e-17
  16    0.0037601028307758
  17    5.7555104165824e-18
  18    -4.4334176013823e-17
  19    -0.018922282521925
  20     0.003304655882647
  21     0.018922282521924
  22    -0.0033046558826411
  23    1.4564887088909e-16
  24    -1.2698725718029e-15
  25    2.7655085235545e-15
  26    1.4473248680444e-14
  27    6.8440282785951e-16
  28      0.51188973931586
  29    4.1887638454201e-16
  30    6.7272458110706e-16
  31      0.31369751034476
  32    2.499980512182e-15
  33    7.3951727841055e-17
  34     0.013573175222666
  35    3.7993636073531e-15
  36    1.0163718929265e-17
  37    3.906742835759e-17
  38     0.050109966822816
  39    -2.2546145814012e-16
  40    -2.290173513127e-18
  41     -0.22817109607274
  42    -0.086666947446169
  43      0.22817109607274
  44      0.08666694744615
 Sym= A
 Ene=   -0.6902833764
 Spin= Alpha
 Occup=    2.00000
   1    -1.6361671286628e-16
   2    2.2148693220237e-15
   3    -8.6602237574262e-15
   4    -2.6973902620827e-14
   5    -2.3446676090215e-15
   6      0.51066592168109
   7    -6.9022990535561e-16
   8    -2.2059278270352e-15
   9      0.31383482669918
  10    -5.5638778731083e-15
  11    5.2763040785691e-16
  12    0.0086804219692176
  13    -1.1617332623841e-14
  14    -2.4638225092679e-16
  15    -1.80663031676e-16
  16     0.050483903707057
  17    1.1773402820564e-16
  18    -2.167076474628e-16
  19     -0.22781615331117
  20     -0.09099666123424
  21      0.22781615331117
  22     0.090996661234286
  23    1.1678779713766e-16
  24    -3.8641732067744e-17
  25    1.7210413629357e-15
  26    7.1320946633164e-16
  27    -3.1229788671391e-16
  28    -0.041746142667225
  29    -2.3933619519053e-16
  30    -2.9101308747201e-16
  31    -0.023703036419446
  32    4.241739235055e-16
  33    -3.7057140069706e-17
  34     0.013480906587326
  35    -1.4936357637427e-16
  36    -1.5189447839445e-16
  37    -1.4386008180726e-17
  38    -0.0048461237801091
  39    -1.0987704103029e-16
  40    1.1856272999283e-19
  41     0.018815052595856
  42     0.020786587490412
  43    -0.018815052595856
  44    -0.020786587490412
 Sym= A
 Ene=    -0.622598256
 Spin= Alpha
 Occup=    2.00000
   1    -0.027465192538026
   2     0.070730874870658
   3     0.085088891247574
   4     0.034984692019713
   5    3.119036639701e-16
   6    -1.0314711892447e-16
   7      -0.1561249780636
   8    3.681170352149e-16
   9    1.7080185610575e-16
  10     -0.10810856899374
  11    -1.3853185756866e-16
  12    2.3869101754556e-16
  13    0.0078030433776463
  14    -0.011507878657104
  15    1.7430313961982e-17
  16    5.5030662766854e-17
  17    0.00030863945679788
  18    -2.528457756944e-17
  19    -0.042627656712692
  20    -0.018700874419043
  21    -0.042627656712693
  22    -0.018700874419043
  23     0.061176165436235
  24     -0.15718513462551
  25      -0.2109818258999
  26    -0.041372592122529
  27    1.5191730265086e-17
  28    -3.6378836397099e-16
  29      0.52721570388313
  30    1.8543005851703e-17
  31    3.3052057700095e-17
  32      0.36249257941719
  33    -2.8068775338084e-17
  34    -3.8335103220596e-16
  35     0.071055778475004
  36     0.029811712117643
  37    -4.2623063681973e-19
  38    -1.3969872242574e-17
  39    -0.0063148658710813
  40    1.7087384674783e-18
  41      0.13375764241547
  42     0.052586681795046
  43      0.13375764241547
  44     0.052586681795046
 Sym= A
 Ene=   -0.5473942773
 Spin= Alpha
 Occup=    2.00000
   1     0.060830785066056
   2     -0.15485524105035
   3     -0.21863185152204
   4    -0.055792903755276
   5    -2.5890303477521e-15
   6    5.4082752763385e-16
   7      0.54210824586242
   8    -1.6981815487441e-15
   9    -1.3374132738687e-15
  10      0.36991220553106
  11    -3.2151170477516e-16
  12    -1.3154614523154e-15
  13     0.032930248109002
  14     0.030302822104912
  15    -1.2600325055022e-16
  16    -6.9384952467135e-17
  17    -0.0069286364141014
  18    -2.0866042586898e-17
  19      0.13592455440862
  20     0.069115643917228
  21      0.13592455440862
  22     0.069115643917233
  23     0.027386390669075
  24    -0.067974637025738
  25     -0.10902342376354
  26    0.0089787625739377
  27    -8.291218302433e-16
  28    -1.383372462659e-16
  29      0.18737972567837
  30    -5.9639375042685e-16
  31    -4.5601446068496e-16
  32      0.13063463969634
  33    -1.3590839748478e-16
  34    -1.0151491258526e-15
  35     0.010151743126161
  36     0.012946457199771
  37    -3.8338535733369e-17
  38    -2.665159372707e-17
  39    -0.0017657666614272
  40     3.30584751378e-19
  41     0.047168699246585
  42     0.022930525409222
  43     0.047168699246584
  44     0.022930525409225
 Sym= A
 Ene=   -0.5347566358
 Spin= Alpha
 Occup=    2.00000
   1    1.0261026741915e-16
   2    -2.5450169099589e-16
   3    -4.0456082915926e-16
   4    -1.6372500018471e-16
   5     0.044388596535274
   6    2.3826429209549e-16
   7    8.7851961991173e-16
   8     0.034892569975655
   9    6.8756195706597e-16
  10    5.9149189387162e-16
  11    0.00058043637595853
  12    -7.860675290346e-16
  13    -6.9373181774485e-18
  14    5.1179709023356e-17
  15    0.0030972643072576
  16    2.1979156238152e-17
  17    3.3100261188008e-18
  18    2.3250001736597e-16
  19    1.2606228853175e-16
  20    -1.2956911853042e-16
  21    3.4120859955434e-16
  22    4.8803025169574e-16
  23    4.8127508983919e-17
  24    -1.3272419438348e-16
  25    -1.3994099075186e-16
  26    -6.2253930060726e-17
  27       0.6364333904647
  28    -6.2545476712824e-16
  29    2.8382893376024e-16
  30      0.46508567995072
  31    -1.5189096385401e-16
  32    1.9594889512418e-16
  33     0.081181193419572
  34    -7.5121020550759e-16
  35    -3.3102084600182e-17
  36    1.1272781696017e-17
  37     0.031479377533208
  38    -7.6151449065211e-18
  39    3.2486137239104e-18
  40    9.3570576880362e-17
  41    2.3940093836301e-16
  42    -4.3978554609364e-17
  43    -9.898709237091e-17
  44    1.9249374139408e-16
 Sym= A
 Ene=   -0.4775400945
 Spin= Alpha
 Occup=    2.00000
   1    2.7434204642887e-16
   2    -6.1600322797275e-16
   3    -1.4531647657484e-15
   4    8.9009804429701e-17
   5      0.63439489197186
   6    9.6860886499753e-16
   7    1.9880718634405e-15
   8      0.46528746513151
   9    1.0188445410175e-15
  10    1.5192291431564e-15
  11     0.084915582809249
  12    1.7512992011275e-16
  13    -1.3832056617383e-16
  14    1.8887867612272e-16
  15     0.031582445278241
  16    1.1318486149296e-16
  17    -1.9233251438877e-17
  18    1.1175399329307e-16
  19    -3.2653785794969e-16
  20    4.6679178516786e-16
  21    1.4276129058644e-15
  22    7.8250286817896e-16
  23    1.3045873578242e-16
  24    -3.0409340685742e-16
  25    -2.8868499009765e-16
  26    -9.9434853511094e-16
  27    -0.054401905806825
  28    6.935266837371e-16
  29    4.4333976288743e-16
  30    -0.043492890530599
  31    1.8815524729301e-16
  32    1.1919117141644e-16
  33    0.00098386876438891
  34    2.7936540397354e-16
  35    -1.8311454887482e-17
  36    -5.9093446576056e-17
  37    -0.0035133401795378
  38    1.0049628488964e-16
  39    7.6503159293498e-17
  40    -7.9452428886386e-18
  41    -3.4338807105189e-16
  42    1.0162854938226e-15
  43    3.7824500389265e-16
  44    3.3070653025629e-16
 Sym= A
 Ene=    0.1220101249
 Spin= Alpha
 Occup=    0.00000
   1     0.019189954231236
   2    -0.020624007274334
   3     -0.23822311427005
   4      0.58794725282303
   5    4.1787417004826e-16
   6    2.080031114903e-15
   7    -0.061178794767578
   8    9.0131264896234e-16
   9    -6.6912691182511e-15
  10    -0.065769910983671
  11    -2.4887886014866e-15
  12    -2.5627404423747e-14
  13      0.28729082641117
  14    6.473661803039e-05
  15    9.5478806503801e-17
  16    -5.6394240688601e-17
  17    0.0030368541674506
  18    -5.6946419484473e-17
  19      0.01188750497457
  20    -0.060101173089895
  21     0.011887504974564
  22    -0.060101173089816
  23     0.063100308016903
  24    -0.098969901057992
  25     -0.62132906429224
  26       1.5140874219395
  27    2.1078991378121e-16
  28    -2.7717604075016e-15
  29     -0.14553462358244
  30    4.0176604037757e-16
  31    -1.8789951010009e-14
  32     -0.20309942207463
  33    -6.588604413654e-16
  34    -5.6213582831295e-14
  35       0.9455058657607
  36    -0.0052270450013281
  37    1.9433053957769e-17
  38    -1.1119875825739e-15
  39    0.0070653048333049
  40    -6.6036399483615e-18
  41     0.051294880152547
  42     -0.39311415550279
  43     0.051294880152552
  44     -0.39311415550267
 Sym= A
 Ene=    0.1866483169
 Spin= Alpha
 Occup=    0.00000
   1    -7.1460980837427e-15
   2    9.0041199312839e-15
   3    7.6571412384881e-14
   4    -1.3536311075288e-13
   5    2.1378825380891e-17
   6     -0.13143820629086
   7    6.4793681589395e-15
   8    -3.9821299029539e-16
   9     -0.19568662549081
  10    -1.3133641699164e-15
  11    4.0538192738136e-16
  12      0.54022457061217
  13    1.1886213254129e-14
  14    6.9639760727896e-16
  15    -3.5915713644201e-16
  16    -0.010321001624269
  17    -4.3322405922455e-16
  18    -1.1436667791214e-16
  19    -0.022944756101313
  20      0.22468475111375
  21     0.022944756101299
  22      -0.2246847511137
  23    -4.2773989686194e-16
  24    -1.414943100812e-15
  25    1.1333392346571e-14
  26    4.3718465299157e-14
  27    -1.9700036569991e-16
  28     -0.15105508458064
  29    -1.4279201676236e-14
  30    -3.0132174710862e-16
  31      -0.3396944600717
  32    -3.2041897471601e-14
  33    1.0189951537621e-15
  34       1.3027105323703
  35    9.4870722916712e-14
  36    -4.991791905371e-16
  37    -4.1275525498543e-17
  38    -0.024776047453567
  39    7.6487334378642e-16
  40    -2.5361156202355e-17
  41    -0.0072941807364582
  42      0.39988103883324
  43    0.0072941807364626
  44      -0.3998810388333
 Sym= A
 Ene=    0.2063335972
 Spin= Alpha
 Occup=    0.00000
   1     0.073568576066924
   2     -0.10639399405763
   3     -0.78331700842667
   4       1.2330224711257
   5    -3.6866447048081e-16
   6    -2.2286720505695e-14
   7    -0.089747099759912
   8    -3.2152922824984e-16
   9    -6.9444450540728e-14
  10    -0.029398487704642
  11     6.35083655036e-16
  12    -1.3749748784898e-13
  13    -0.093746749194414
  14    -0.0064875552177951
  15    -5.5683529085085e-17
  16    -6.3851258114691e-16
  17    0.0050908428413244
  18    5.6641255446584e-17
  19     0.056829197439357
  20     -0.15091978787336
  21     0.056829197439354
  22     -0.15091978787295
  23     0.017353192287575
  24    -0.025744930895519
  25     -0.20318466574749
  26     -0.21091431998045
  27    3.1846088459307e-18
  28    -2.2390154174812e-14
  29      0.12091052009816
  30    9.4054511521038e-20
  31    -4.8630106264913e-14
  32      0.26884091442324
  33    -1.2590643375975e-16
  34    1.2065787895221e-13
  35     -0.80106581004012
  36    0.0047222159101977
  37    -4.0765885089907e-18
  38    -3.5589461992042e-15
  39    -0.004494473240656
  40    9.1981569114986e-18
  41    0.0012622353102203
  42      0.24867332423535
  43    0.0012622353102115
  44      0.24867332423535
 Sym= A
 Ene=    0.2304202175
 Spin= Alpha
 Occup=    0.00000
   1    -1.0197398165593e-17
   2    -1.649561278133e-16
   3    1.2686322073948e-16
   4    -3.3701690250178e-14
   5     -0.11322778570012
   6    -7.5683522490751e-16
   7    3.4900917215982e-16
   8     -0.22222880582257
   9    5.1569103252011e-17
  10    2.2808585844722e-15
  11      0.40759710504974
  12    -2.6121348176026e-15
  13    -2.7266993739667e-14
  14    7.3601126273703e-17
  15    0.00045533753844987
  16    8.2283844847618e-16
  17    -1.8626655869224e-17
  18    -3.4584663145363e-17
  19    3.7141717972874e-16
  20    1.2595406412989e-14
  21    -9.0173870928435e-16
  22    1.8479918340833e-14
  23     1.15155792765e-15
  24    -1.7246253298455e-15
  25    -1.8031461243265e-14
  26    -1.1452893598168e-14
  27     -0.19150061888592
  28    8.4468442012382e-16
  29    -2.7911436197604e-15
  30     -0.45372366596642
  31    2.8857613768503e-15
  32    -7.3263161298817e-15
  33       1.0502433820454
  34    6.2064967018263e-16
  35    -2.1683260657191e-14
  36    -3.4418348157708e-16
  37    -0.0085239409090064
  38    1.377347638696e-16
  39    -4.1688329778731e-16
  40    1.145057452134e-16
  41    3.3082373621361e-15
  42    2.9857808041209e-14
  43    1.6215675312609e-15
  44    2.1687929651987e-14
 Sym= A
 Ene=    0.2567460662
 Spin= Alpha
 Occup=    0.00000
   1    2.922179488991e-15
   2    -1.0702153605437e-14
   3    -6.8115622492504e-15
   4    4.2855102887319e-14
   5    -4.1412609177101e-16
   6     -0.11638496312903
   7    -9.4055555747976e-15
   8    -8.993589086529e-16
   9     -0.30552952247671
  10    1.0648729629399e-15
  11    2.2524822632647e-15
  12       1.3652204287084
  13    -6.6094582791946e-15
  14    3.4369381344628e-17
  15    -2.8165616642279e-16
  16    -0.024521000914619
  17    1.6383277624623e-16
  18    -1.8569180827649e-17
  19    0.00012168960567977
  20      0.42703313189835
  21    -0.00012168960568335
  22     -0.42703313189841
  23    4.5605551600173e-15
  24    -6.088840006161e-15
  25    -6.1943781131931e-14
  26    3.045937782892e-14
  27    2.9303120750745e-16
  28      0.16162210041217
  29    8.6189289483712e-15
  30    1.212559900924e-15
  31      0.41144009482567
  32    2.4767271232801e-14
  33    -2.479535023152e-15
  34     -0.53593781831347
  35    -1.1248958738997e-13
  36    -2.6064987902853e-16
  37    -1.1530199575319e-16
  38     0.012520359397554
  39    -3.7843684514234e-16
  40    3.2788732706992e-16
  41     0.037036320914477
  42      0.32855332513214
  43    -0.037036320914469
  44     -0.32855332513207
 Sym= A
 Ene=    0.2991400626
 Spin= Alpha
 Occup=    0.00000
   1    -0.024512664588463
   2     0.020195422376565
   3      0.40250539132832
   4     0.011753968345097
   5    -4.537248190494e-15
   6    1.9295965248074e-14
   7     -0.16975812135789
   8    -3.0104775111349e-15
   9    4.8193548442561e-14
  10     -0.41155446013822
  11    1.4000803567099e-14
  12    5.5940140451223e-14
  13       1.2502890845438
  14    -0.010160535204846
  15    -1.1727507365645e-16
  16    4.0714356119293e-16
  17    0.0080653755985412
  18    8.7197008712993e-17
  19    0.0065991580070306
  20     -0.43597583794147
  21    0.0065991580070221
  22      -0.4359758379417
  23     0.031143455888465
  24    -0.048079361799643
  25     -0.37871864787365
  26     -0.37529228254969
  27    5.5331691471372e-16
  28    -2.1858952564133e-14
  29     0.074084412127827
  30    3.9408644850012e-16
  31    -5.7171957464029e-14
  32      0.22181601816697
  33    -3.6290851825731e-15
  34    -5.300415284143e-14
  35      -0.6825513556157
  36    -0.0036582039407636
  37    -5.1327159182063e-17
  38    1.0193318894109e-15
  39    -0.0040672182444818
  40    2.8659995141125e-16
  41      0.01171137808968
  42      0.37408058028038
  43     0.011711378089691
  44      0.37408058028065
 Sym= A
 Ene=    0.2994528613
 Spin= Alpha
 Occup=    0.00000
   1    1.155865025664e-17
   2    -2.5702947039658e-16
   3    -2.70307232874e-16
   4    -5.553447940297e-14
   5     -0.17749917554955
   6    1.181494767103e-15
   7    1.7828184984777e-15
   8      -0.4830577196114
   9    4.1397918442316e-15
  10    5.5730009448108e-15
  11       1.2336382517941
  12    6.2556578710983e-15
  13    -5.0326112452063e-14
  14    3.5545086010455e-16
  15    -0.011106453200654
  16    4.9906140121114e-16
  17    -8.4475816565593e-17
  18    -6.436462978951e-17
  19    2.8446230486171e-16
  20    3.6819319552937e-14
  21    -1.1574089720666e-15
  22    1.538050537665e-14
  23    1.4840061367453e-15
  24    -1.7803661077424e-15
  25    -2.5888203366383e-14
  26    -1.2193277587018e-14
  27     0.091830347383867
  28    -1.8852719029371e-15
  29    -4.0613247999936e-15
  30      0.25554563890563
  31    -4.9195981486921e-15
  32    -1.0789043466228e-14
  33     -0.75873479124787
  34    -4.5181801821689e-15
  35    -3.2588260006573e-14
  36    -4.2418897822244e-16
  37    -0.0042010687566612
  38    9.1750525896142e-17
  39    -3.3052650562202e-16
  40    -3.3447924385109e-16
  41    2.3054879261358e-15
  42    2.4833455182296e-14
  43     3.14834876004e-15
  44    4.8512949485629e-14
 Sym= A
 Ene=    0.3232281104
 Spin= Alpha
 Occup=    0.00000
   1    -1.2496408818719e-14
   2    -1.8391692182099e-14
   3    2.7163772557769e-13
   4    -3.1943198851129e-12
   5    1.3460208234087e-15
   6      0.11937178424417
   7    2.5973156673635e-14
   8    3.2962694304013e-15
   9      0.28269566922146
  10    1.0901225137535e-13
  11    -8.7129156383091e-15
  12      0.98184847137495
  13    -2.2812341508357e-12
  14    1.5215965970106e-14
  15    -7.4244338857725e-17
  16    -0.0067161831815244
  17    -3.3210789030514e-15
  18    -2.6038056684182e-16
  19     0.055868549482312
  20       1.0447908951525
  21    -0.055868549482364
  22      -1.0447908951501
  23    6.8421984571282e-14
  24    -4.4798369712218e-14
  25    -1.2517371274734e-12
  26    5.9953171447631e-13
  27    -1.4486452146104e-15
  28     -0.20197188085598
  29    -5.2000754798475e-14
  30    -3.4861464283294e-15
  31     -0.60061318825159
  32    -8.0572279570759e-14
  33    9.3626711754394e-15
  34     -0.87589079087963
  35    -1.9847087879574e-12
  36    -1.4789758294764e-14
  37    -3.848474833324e-17
  38    0.0076500230141847
  39    -1.0022442955128e-14
  40    -5.6575092616217e-17
  41     -0.10430076842416
  42      -1.5434011581196
  43      0.10430076842431
  44       1.5434011581219
 Sym= A
 Ene=    0.3395750208
 Spin= Alpha
 Occup=    0.00000
   1     0.010601848885693
   2    0.00094783099752259
   3     -0.17710784802545
   4       2.4041236476142
   5    -1.4282776128853e-14
   6    9.9621733643183e-14
   7    -0.0071548041425843
   8    -2.3935196679437e-15
   9    1.9033545391067e-13
  10    -0.024401740218088
  11    2.9596735296258e-14
  12    9.5341609287756e-13
  13       1.5779732577618
  14    -0.011369684405949
  15    1.4563556387646e-16
  16    -8.8162673405119e-15
  17    0.0020151622793797
  18    3.3415392561581e-17
  19    0.0084555217762688
  20     -0.91215730238057
  21    0.0084555217761259
  22     -0.91215730238221
  23     -0.07166920764857
  24     0.071259607001097
  25       1.2564467875094
  26      0.72474317567961
  27    6.0788880060934e-16
  28    -2.2486672592664e-13
  29      0.11372615319641
  30    -3.0849018881145e-15
  31    -6.7795207733315e-13
  32       0.3123366356241
  33    -1.3268450658372e-16
  34    -1.0773239404399e-12
  35       1.8011144967408
  36      0.01677224888762
  37    -1.101913045029e-16
  38    7.0267803660909e-15
  39     0.012058243963815
  40    1.1106263293495e-15
  41    -0.095724731450806
  42      -1.7389345022984
  43    -0.095724731450541
  44      -1.7389345022949
 Sym= A
 Ene=    0.3919098902
 Spin= Alpha
 Occup=    0.00000
   1    -0.043683935655234
   2      0.03316183432414
   3      0.81567866626066
   4     -0.66733407207346
   5    -1.9397649916939e-15
   6    -1.3438587261586e-14
   7       0.1095053655696
   8    2.0514854332528e-15
   9    -5.8929003737877e-15
  10      0.38320397469514
  11    1.7416282744264e-16
  12    -2.7673286307989e-13
  13     -0.91417758414956
  14     0.018660352558448
  15    -2.3055921984918e-17
  16    6.0962834650151e-15
  17    0.0038046635153821
  18    3.1053640129363e-17
  19    -0.058887486891597
  20     -0.56746324726869
  21    -0.058887486891561
  22      -0.5674632472684
  23    0.0014170018332158
  24     0.019055385278158
  25    -0.055214721990736
  26       3.3064239396151
  27    4.4428419507204e-18
  28    8.4549629265556e-14
  29      0.14862273406388
  30    -9.931328234459e-16
  31    2.0478473916223e-13
  32      0.61727437431295
  33    1.5676975489856e-15
  34    4.3275676126798e-13
  35     -0.50332007579809
  36    -0.0070958556913476
  37    9.0010860846962e-18
  38    -6.7695711300379e-15
  39    0.0084581061798124
  40    2.0160870884459e-16
  41    -0.052958023143709
  42      -1.5001183294864
  43     -0.05295802314379
  44      -1.5001183294876
 Sym= A
 Ene=    0.4233211923
 Spin= Alpha
 Occup=    0.00000
   1    -0.043422813331691
   2     0.053101960166669
   3      0.80081273709626
   4       3.5157125094149
   5    8.5785879705143e-16
   6    -5.1057482717679e-14
   7      0.18585388966323
   8    -6.3098176127916e-16
   9    -1.9473193749828e-13
  10      0.60029247990432
  11    -2.4453884685303e-16
  12    -7.0647640484736e-14
  13        1.425486923973
  14    0.0098644340130471
  15    7.6368849159877e-17
  16    -5.9436601278921e-16
  17     0.013931267659142
  18    1.1221674927719e-17
  19    -0.097395406702162
  20      -2.5233717016481
  21    -0.097395406702194
  22      -2.5233717016471
  23     0.018950955591968
  24    -0.0046750856248463
  25     -0.44642718574084
  26      -1.8585458668984
  27    -3.9146203811899e-17
  28    -8.7364658625825e-14
  29     -0.13328269866246
  30    2.928981752538e-16
  31    -1.8755509185123e-13
  32     -0.28729625326282
  33    -3.5792756040177e-16
  34    -5.7485263435032e-13
  35     -0.33928130256588
  36    -0.017948019813252
  37    -3.2835970634209e-18
  38    3.820928751699e-15
  39    -0.002873670937176
  40    -8.0208299196009e-17
  41     0.051447709097053
  42       1.1730558602091
  43     0.051447709097112
  44       1.1730558602105
 Sym= A
 Ene=    0.4671039903
 Spin= Alpha
 Occup=    0.00000
   1    2.8182101534224e-15
   2    1.2413527578264e-14
   3    -1.191630953857e-13
   4    -1.4367395676835e-12
   5    -1.1905558990239e-16
   6     -0.29824672242022
   7    -4.0244159393623e-14
   8    -1.0965661338897e-15
   9     -0.81225128457799
  10    -1.6115155550794e-13
  11    1.5177190145823e-15
  12     -0.56941606259587
  13    -6.5872198429554e-13
  14    7.7444000754245e-16
  15    1.2020307808597e-16
  16    -0.0015924325027415
  17    -4.4736944954682e-15
  18    -1.0138915009156e-16
  19     -0.11151285604043
  20       -1.879428966618
  21      0.11151285604051
  22       1.8794289666195
  23    5.5089450437496e-16
  24    7.9636199344365e-16
  25    -6.4488582588315e-15
  26    7.361967158921e-13
  27    3.6693387018447e-16
  28     -0.16638485523383
  29    3.6465844012406e-14
  30    3.2072966048938e-17
  31      -0.3627899241365
  32    1.0041567099935e-13
  33    -8.4150040090071e-16
  34      -1.4398683359491
  35    -1.4460884999175e-13
  36    1.4034034866135e-15
  37    1.173355660118e-16
  38    0.0025755022527724
  39    -2.9617603757094e-16
  40    2.0050890977527e-16
  41    -0.070671145437944
  42      -1.5446787892936
  43      0.07067114543791
  44       1.5446787892931
 Sym= A
 Ene=     1.228293573
 Spin= Alpha
 Occup=    0.00000
   1    2.4779434213588e-15
   2    -3.1701659824839e-15
   3    -7.9348615031766e-15
   4    3.3042970901666e-14
   5    1.4675728597582e-16
   6     -0.10785342491637
   7    -1.7330220605214e-15
   8    1.1358444081555e-16
   9      0.21739431718695
  10    -3.2560188624821e-14
  11    -3.2155514905443e-16
  12     -0.22855439885845
  13    3.043992763406e-14
  14    -3.7692679103594e-15
  15    1.1073675567748e-16
  16    -0.067283787283713
  17    -1.0466297077068e-14
  18    -7.4319087957939e-17
  19      0.22496852494123
  20     -0.54437738497489
  21     -0.22496852494114
  22       0.5443773849748
  23    -1.0664100575751e-14
  24    1.0507379475713e-13
  25    -1.4245959670264e-13
  26    -1.8050380151478e-13
  27    2.6251748148731e-17
  28      0.24101742638483
  29    2.0710971265555e-14
  30    2.0474668869331e-16
  31       0.2311809859967
  32    2.5137413026467e-14
  33    -5.0448284315853e-16
  34      -1.1883847122207
  35    -1.0840551759228e-13
  36    -2.2621075657115e-15
  37    -3.1900022728406e-16
  38     -0.27184751480809
  39    2.4688984104362e-14
  40    -9.3982412287866e-17
  41      0.83559551877002
  42      -1.7392702308055
  43     -0.83559551877024
  44       1.7392702308059
 Sym= A
 Ene=     1.260674753
 Spin= Alpha
 Occup=    0.00000
   1    -9.117439682408e-15
   2    2.8267864914227e-14
   3    -1.5970751747695e-14
   4    -9.2138287306769e-14
   5    2.6767662534846e-16
   6     -0.25487596386773
   7    3.6504971022887e-14
   8    -2.8778379149133e-16
   9     -0.20020721857644
  10    5.9859696169892e-14
  11    -2.6196007563539e-16
  12      0.81072480957119
  13    -4.6447533355527e-14
  14    4.1026174004529e-15
  15    -1.486106118062e-16
  16      0.23452852204128
  17    4.3239494984288e-14
  18    5.2106554886015e-17
  19     -0.76187040525247
  20       1.3816963166398
  21      0.76187040525214
  22      -1.3816963166394
  23    -7.4614603325194e-16
  24    2.1677896635177e-14
  25    -2.3818136350037e-14
  26    -8.6435207218507e-14
  27    -2.0486942351159e-16
  28      0.49391702485204
  29    6.0933947764962e-14
  30    1.0393331993151e-16
  31      -0.5562298923452
  32    -1.0433400980231e-13
  33    -1.1009727488997e-16
  34      0.14684368109891
  35    6.9609154664781e-14
  36    1.4853777667927e-14
  37    2.801669471112e-17
  38    -0.026304102470918
  39    -4.4931188503573e-15
  40    -5.8873955819748e-17
  41      0.16171736575113
  42       -0.334018773238
  43     -0.16171736575111
  44      0.33401877323808
 Sym= A
 Ene=     1.319240873
 Spin= Alpha
 Occup=    0.00000
   1     0.038213205586333
   2     -0.15257793495662
   3     0.057656478220492
   4      0.56658368325398
   5    2.529561546608e-15
   6    -8.2374081138076e-15
   7      0.10641918171455
   8    -3.4681408447256e-15
   9    -4.2143667063423e-14
  10     -0.53781918621135
  11    1.6013213032057e-15
  12    8.6478592476917e-14
  13      0.45973968515924
  14    -0.059708454798928
  15    -1.5164488773395e-16
  16    2.874505262489e-14
  17     -0.15677752733761
  18    1.0658831701667e-16
  19      0.57220594850445
  20     -0.73020555407352
  21       0.5722059485046
  22     -0.73020555407379
  23    0.0057163989364324
  24     -0.10480287369835
  25      0.25998069474378
  26      0.77528869588704
  27    -2.3618811423589e-16
  28    1.5687716175465e-13
  29     -0.79127831409173
  30    4.0284963201938e-16
  31    -2.3467245878404e-13
  32       1.1810592256371
  33    -3.9120225258333e-16
  34    5.9564722868382e-14
  35      -0.2856471451715
  36    -0.056534522092576
  37    -3.873464123574e-17
  38    2.053013721652e-15
  39    -0.0046894004741352
  40    -7.0080770108763e-17
  41       0.1021123429658
  42     -0.67041870798017
  43       0.1021123429658
  44     -0.67041870798002
 Sym= A
 Ene=     1.360278933
 Spin= Alpha
 Occup=    0.00000
   1    0.0090607185550911
   2    0.0017666839451824
   3    -0.081066789643456
   4      0.11230875714968
   5    -7.5234383505309e-14
   6    8.8228712757018e-14
   7      0.18795573832064
   8    1.0809447562883e-13
   9    -2.0200376801053e-13
  10     -0.38785925934996
  11    -5.01500706519e-14
  12     1.94676912553e-13
  13       0.2201105608258
  14    -0.031660570953745
  15    2.4582618860476e-15
  16    4.2567721999448e-14
  17    -0.042589989937922
  18    2.9573773969597e-16
  19      0.14836143987249
  20     -0.15972248941832
  21      0.14836143987274
  22     -0.15972248941876
  23    -0.057900665910086
  24      0.42070947715912
  25     -0.63395292963916
  26       -1.719885286465
  27    2.6424888194644e-15
  28    -1.7033694282385e-13
  29      0.12965430210163
  30    -5.3627188957243e-15
  31    2.483551892647e-13
  32      0.27069984294101
  33    8.6567792794459e-15
  34    4.8389117270797e-14
  35     -0.95747178081672
  36    -0.0069193757036295
  37    1.3002089946416e-15
  38    2.9167857723305e-14
  39      0.26526706414525
  40    1.7932768077524e-15
  41     -0.91278868451334
  42       1.7910484952624
  43     -0.91278868451326
  44       1.7910484952619
 Sym= A
 Ene=     1.385182442
 Spin= Alpha
 Occup=    0.00000
   1    -9.2192917588805e-17
   2    -2.7224158870098e-16
   3    1.5155002946689e-15
   4    -1.2423787086131e-15
   5     -0.21054048999622
   6    1.3685329592594e-14
   7    -3.1173707047919e-15
   8      0.28938603391207
   9    -3.5793521765987e-14
  10    5.987130443568e-15
  11    -0.052579454311077
  12    3.7813440726105e-14
  13    -3.4933859531792e-15
  14    4.0927011925111e-16
  15    -0.0086181452702037
  16    7.6635393194559e-15
  17    4.7057996125029e-16
  18    -3.6179851672557e-16
  19    -2.4998985539766e-14
  20    3.9344900579752e-14
  21    2.1879330762302e-14
  22    -3.65155060677e-14
  23    7.9274717534056e-16
  24    -5.5619905212089e-15
  25    7.8065634076462e-15
  26    2.2554977742354e-14
  27     -0.96852959792547
  28    -4.9159596445498e-14
  29    -1.9813400893516e-15
  30       1.4069944754564
  31    8.7035729554837e-14
  32    -3.7790648641963e-15
  33     -0.65147457578132
  34    -2.9077828447041e-14
  35    1.2115513441243e-14
  36    6.6841756753743e-17
  37     0.026878963570306
  38    -5.5164421308501e-15
  39    -3.5572647213168e-15
  40    2.6045506365787e-16
  41    2.5043763917125e-14
  42    -1.4347129869405e-14
  43    -3.2023524456122e-16
  44    -3.1948139499781e-14
 Sym= A
 Ene=     1.389537121
 Spin= Alpha
 Occup=    0.00000
   1    -1.6783671829484e-15
   2    7.5252339948243e-15
   3    -2.5768745690116e-14
   4    -1.0620147425837e-13
   5    6.998457587727e-15
   6      0.21575498925669
   7    4.4720617773867e-14
   8    -8.8922147360601e-15
   9     -0.56652840973014
  10    -4.6045107668792e-14
  11    -1.2147669129435e-15
  12      0.63350556053942
  13    -2.6834297470469e-14
  14    -2.7352532259043e-15
  15    1.0449981901684e-15
  16      0.13445296097071
  17    1.1289789384272e-14
  18    -3.9990859486722e-16
  19      -0.3845375158811
  20      0.65573716292289
  21      0.38453751588101
  22     -0.65573716292266
  23    1.1776030273169e-14
  24    -9.8203804569341e-14
  25    1.8410950425928e-13
  26    4.8514824103913e-13
  27    5.950625514947e-14
  28     -0.81995901542987
  29    -1.3140575121237e-13
  30    -8.6940164328934e-14
  31       1.4607662254773
  32    1.2095507235662e-13
  33    4.0947588198219e-14
  34     -0.46202477252256
  35    1.8285611762986e-13
  36    3.3193609098481e-15
  37    -1.1562803518509e-15
  38       -0.090295629435
  39    -5.3859705199287e-14
  40    2.2709708898417e-16
  41      0.20980437341749
  42      0.17547626923642
  43      -0.2098043734171
  44      -0.1754762692374
 Sym= A
 Ene=     1.418780973
 Spin= Alpha
 Occup=    0.00000
   1    -0.031914922012169
   2      0.36690676961662
   3     -0.77034369755102
   4      -1.5595300650691
   5    -2.6892147594149e-15
   6    -1.1181402086788e-13
   7       0.8608424461895
   8    3.9774274537157e-15
   9    2.4356092796316e-13
  10      -1.1254809590964
  11    -1.6549728220162e-15
  12    -1.5986667777251e-13
  13     -0.21611840671189
  14    -0.036101222001679
  15    6.1455504670308e-18
  16    -4.5862446499739e-14
  17      0.11380671923769
  18    6.5887632304363e-17
  19     -0.50961573564278
  20        1.592447601302
  21     -0.50961573564297
  22       1.5924476013022
  23     0.011002911495829
  24     -0.19258034011194
  25      0.39180413257321
  26      0.33866854909003
  27    -7.6229106179169e-17
  28    9.284171853139e-15
  29     -0.24799849573012
  30    4.6308372856256e-17
  31    -2.8268578886736e-14
  32       0.4740194521321
  33    2.0066839700568e-16
  34    4.7278977887914e-14
  35     0.049976459104146
  36     0.053288575878782
  37    5.3418842036456e-17
  38    2.9769242031407e-15
  39    -0.010559053818877
  40    8.9323023219662e-17
  41     0.034439346736924
  42     -0.41063537374851
  43     0.034439346736961
  44     -0.41063537374859
 Sym= A
 Ene=      1.44151057
 Spin= Alpha
 Occup=    0.00000
   1    -4.7770947114372e-16
   2    -1.5225403996421e-15
   3    7.884131337354e-15
   4    -1.9704430111297e-14
   5     -0.97121092902209
   6    7.0728614630016e-16
   7    -1.5577817818916e-14
   8       1.4090670775347
   9    -6.6949504608841e-15
  10    3.1112711884588e-14
  11     -0.67911318031642
  12    -1.5734732004601e-16
  13    -2.8196908891855e-14
  14    2.2082816319598e-15
  15     0.037492844862618
  16    -9.5823229079523e-15
  17    2.4101733752993e-15
  18    -4.3831847507313e-16
  19    -1.3496416044152e-14
  20    1.1182729259052e-14
  21    -2.7090478207712e-15
  22    1.6170012682255e-14
  23    4.8004754113877e-15
  24    -3.0922963074398e-14
  25    3.5635478261077e-14
  26    1.1662191196527e-13
  27      0.21318675553591
  28    5.3974580710537e-15
  29    -1.2368008094921e-14
  30     -0.32372838387754
  31    -1.0748231769359e-14
  32    -2.3217292819064e-14
  33      0.22676809558409
  34    1.495431615072e-15
  35    5.7041863008142e-14
  36    7.5839283518576e-18
  37     0.012799087263161
  38    -1.0125019936699e-15
  39    -1.9860238666716e-14
  40    -8.6434485052764e-16
  41    6.6936658024543e-14
  42    -1.1905342315032e-13
  43    7.115488192538e-14
  44    -1.1294184215478e-13
 Sym= A
 Ene=      1.48460258
 Spin= Alpha
 Occup=    0.00000
   1    1.212130913786e-15
   2    -4.9014525852532e-14
   3    1.1460423544394e-13
   4    9.6228425106803e-14
   5    -2.0578710255767e-15
   6     -0.98001853553375
   7    -1.634314695107e-13
   8    2.8852161108327e-15
   9       1.6590013778364
  10    2.6391397844439e-13
  11    -1.6441743689985e-15
  12     -0.16665670233415
  13    -6.9201326823438e-14
  14    9.6292502069153e-16
  15    -1.7177617895582e-16
  16    -0.010175113455243
  17    1.0480605417048e-14
  18    1.5509279415397e-16
  19    -0.062519646757673
  20       1.0340429968705
  21     0.062519646757662
  22      -1.0340429968707
  23    -2.4802730079839e-15
  24    -3.2568275116672e-14
  25    7.837790188097e-14
  26    -2.1584189294601e-14
  27    -4.2765721738571e-16
  28     -0.32678039264787
  29    -9.6824205713271e-14
  30    5.8767341736816e-17
  31      0.55595009961284
  32    1.8851169433456e-13
  33    -1.1398214531324e-16
  34      0.56861082949103
  35    -1.0978476445811e-13
  36    1.2059820756968e-14
  37    1.0580643935751e-16
  38     0.043440166521602
  39    4.2115387568078e-14
  40    -4.701153379411e-17
  41    -0.085932028359175
  42      0.83090083055614
  43     0.085932028359033
  44     -0.83090083055606
 Sym= A
 Ene=     1.520585425
 Spin= Alpha
 Occup=    0.00000
   1    -0.038542748193925
   2       0.3352849786591
   3     -0.37117226978209
   4     -0.80574629938906
   5    -2.1199873479619e-16
   6    1.634390172368e-13
   7     -0.50127356720926
   8    2.1051937037536e-16
   9    -2.6554672096195e-13
  10       0.9675959740238
  11    -5.1890915763758e-16
  12    -2.341500489999e-14
  13     -0.85876975851949
  14     0.011680293442738
  15    2.0102612544827e-16
  16    -1.5133590951035e-14
  17      0.17809707542355
  18    5.3669539052369e-17
  19     -0.44975742763046
  20      0.73983940554272
  21     -0.44975742763054
  22      0.73983940554323
  23      0.00419004711851
  24     -0.40560569351737
  25      0.81022617492958
  26      0.25164043733826
  27    1.5629679799038e-16
  28    5.4144450568315e-14
  29     -0.53843222870036
  30    -2.0347015402253e-16
  31    -9.7474543926593e-14
  32       1.0338137837052
  33    1.0434818437835e-16
  34    -1.0945854234192e-13
  35     -0.36664412893172
  36      0.14728562271346
  37    -1.7924410278792e-18
  38    -8.9715304028197e-15
  39      0.17643754081937
  40    -4.6649446595745e-17
  41     -0.24057453123807
  42     -0.21934936477441
  43      -0.2405745312381
  44     -0.21934936477411
 Sym= A
 Ene=       1.7205056
 Spin= Alpha
 Occup=    0.00000
   1     0.045279636928636
   2      -1.0262842340748
   3       1.5570687891837
   4     0.086009649729982
   5    -3.0467192102894e-16
   6    1.1799775446304e-14
   7     0.074275947916413
   8    5.2262990293576e-16
   9    -2.7640145897785e-14
  10     0.022008241220832
  11    -4.4061029544403e-16
  12    4.7207987034822e-15
  13      0.31555431010001
  14    -0.0035142160292989
  15    -1.0651280088475e-16
  16    4.9904694465955e-15
  17      0.04581622177049
  18    -1.9532405394785e-16
  19    -0.014785488131545
  20     -0.41710977998046
  21    -0.014785488131544
  22     -0.41710977998041
  23     0.052105150115347
  24      -1.3384966841858
  25       2.0693374517807
  26     -0.59499818676364
  27    2.1943202769646e-17
  28    1.1901805209051e-14
  29      0.12640072179611
  30    -3.0441825164932e-17
  31    -1.6075845018837e-14
  32    -0.086968704309855
  33    4.5965104070017e-17
  34    -5.0067800845516e-14
  35       0.3002452019837
  36     0.025362859249582
  37    2.0945982863488e-17
  38    -1.5939611154338e-14
  39      0.20097983480062
  40    -2.7573682332288e-17
  41     -0.13653938424054
  42     -0.21884702122042
  43     -0.13653938424057
  44     -0.21884702122028
 Sym= A
 Ene=     1.790443713
 Spin= Alpha
 Occup=    0.00000
   1     0.043057382820302
   2      -1.2575158813166
   3       1.9823295116026
   4      -1.2996938400079
   5    1.3253828572178e-16
   6    2.8812647949733e-14
   7    -0.022158951152283
   8    -1.4472899700129e-16
   9    -4.7529782692471e-14
  10      0.24036922553355
  11    1.9225561185708e-16
  12    -5.188078002242e-14
  13     -0.42646145488918
  14      0.14152444582491
  15    2.7479009999414e-16
  16    -1.4664201545554e-14
  17      0.32474926773629
  18    2.6880981371729e-16
  19     -0.28645346065567
  20      0.18287102132943
  21     -0.28645346065572
  22      0.18287102132966
  23    -0.034720443048236
  24      0.88240526753773
  25      -1.3984619213033
  26      0.83257890418852
  27    -1.029449880109e-17
  28    4.7301652937447e-15
  29     -0.20436924085582
  30    2.1150800847405e-17
  31    -1.6845027306776e-14
  32      0.28509008511727
  33    -3.5466672349456e-17
  34    -7.9590463603206e-15
  35     -0.46434005908963
  36    -0.065866358593663
  37    -2.0068765269035e-17
  38    8.0930704884688e-15
  39    -0.092773556040046
  40    2.0625644263132e-17
  41     0.060851569990125
  42      0.05858097587127
  43     0.060851569990144
  44     0.058580975871268
 Sym= A
 Ene=     1.992347155
 Spin= Alpha
 Occup=    0.00000
   1    -1.2195029532704e-17
   2    -4.2625831852041e-17
   3    1.9100035733849e-16
   4    -2.303151994661e-15
   5    -8.6803799476064e-16
   6    -2.5254076027314e-16
   7    -3.7811029102849e-16
   8    1.1057953733219e-15
   9    -2.2482390753016e-15
  10    9.1826284519751e-16
  11    -2.6766258635677e-16
  12    1.4289780849475e-15
  13    -2.1802858516836e-15
  14    5.4440633072278e-17
  15    -2.433308712163e-16
  16    -2.6561987621053e-15
  17    5.3165839986539e-17
  18    0.0011954962800316
  19    -2.5657782737645e-15
  20    1.8415407672587e-15
  21    2.1524929953632e-15
  22    4.9686307735866e-16
  23    1.7789611393357e-16
  24    -8.8713353857918e-16
  25    -7.5335770843303e-17
  26    1.589515717115e-15
  27    5.740770225307e-16
  28    3.9756574112885e-16
  29    -4.7414119813474e-16
  30    -1.1659521786799e-15
  31    -9.4594123242868e-16
  32    -9.7069523054953e-16
  33    3.4176297972487e-16
  34    -1.1945273191894e-15
  35    -2.3154850383488e-17
  36    -1.6107793988701e-17
  37    5.3835070518698e-15
  38    -5.2321908127802e-16
  39    -4.6900566114357e-16
  40      0.99999927814401
  41    1.5171599313405e-15
  42    -2.4221038436013e-15
  43    1.9765523235951e-15
  44    3.7073469516101e-16
 Sym= A
 Ene=     2.008373188
 Spin= Alpha
 Occup=    0.00000
   1    0.0054968864060439
   2     -0.10184835151306
   3      0.25342613369343
   4      0.29128712812544
   5    -1.8361372049395e-16
   6    -3.6886230197426e-15
   7     0.041601949232913
   8    4.2857182531079e-16
   9    7.9507117483367e-15
  10    -0.089715091140464
  11    2.300127969187e-17
  12    3.076470617075e-15
  13      0.15402203519502
  14      0.39234871940436
  15    -5.2846980014141e-15
  16    3.9690632426655e-15
  17    -0.070373642136201
  18    -4.84427166385e-15
  19       0.1189170502582
  20     -0.39884049122917
  21      0.11891705025821
  22     -0.39884049122919
  23    -0.0013182488638401
  24      0.16689913313379
  25     -0.34964573174261
  26     0.091142861335803
  27    1.3961088110808e-16
  28    -8.8805599041399e-16
  29    0.0004158387046909
  30    -3.7683624870369e-16
  31    2.4010961073215e-15
  32     -0.11597027554105
  33    4.0724837497847e-16
  34    6.2656998914002e-15
  35    -0.079037792346138
  36      0.89618487243897
  37    6.6248768246941e-16
  38    1.5223471059026e-15
  39      0.10655419261441
  40    1.9967194434919e-17
  41     0.088754059593411
  42     0.044660467241329
  43     0.088754059593412
  44     0.044660467241313
 Sym= A
 Ene=      2.02745115
 Spin= Alpha
 Occup=    0.00000
   1    -5.3278594059735e-18
   2    9.8185475890721e-17
   3    -2.4338436876963e-16
   4    -2.3058174279402e-16
   5     0.023990494899137
   6    -6.0093819860528e-17
   7    -5.2911685191129e-17
   8    -0.056056063255123
   9    -3.4793706696291e-18
  10    1.0714527118167e-16
  11     0.064379620044245
  12    -3.4816298349549e-16
  13    -1.3194175987938e-16
  14    -2.7812604435166e-16
  15    -0.043291702243795
  16    -8.2336104604173e-17
  17    7.625149657117e-17
  18    -2.958595346729e-15
  19    7.1466409328947e-17
  20    -3.3395370986584e-16
  21    -3.0320589568169e-16
  22    1.0573616933147e-15
  23    8.7366323219483e-20
  24    -1.1700669775194e-16
  25    2.689318607945e-16
  26    -8.9433448369231e-17
  27    0.0012965138873497
  28    6.3564879358968e-16
  29    -1.4805681779649e-17
  30    -0.047236454854773
  31    -5.4079895625581e-16
  32    1.0420794667751e-16
  33    0.0062311910617815
  34    -5.424756196401e-17
  35    1.0449407908914e-16
  36    -8.355571866255e-16
  37      0.99859604835192
  38    -1.2517630273542e-17
  39    -9.84672276534e-17
  40    -5.3657297834364e-15
  41    9.5273155422122e-18
  42    -1.0388412104325e-16
  43    -1.5180627543914e-16
  44    2.7432682443533e-17
 Sym= A
 Ene=      2.04754137
 Spin= Alpha
 Occup=    0.00000
   1    2.2142701414828e-17
   2    -4.4588290392853e-16
   3    1.2116719771348e-15
   4    1.6413376585106e-15
   5    -3.6793600142145e-16
   6    5.4857122983823e-16
   7    1.3856206327661e-16
   8    -4.5919719692448e-16
   9    -4.5360340096539e-16
  10    -2.4188853849039e-16
  11    5.5329415329785e-16
  12    -1.6798153088762e-16
  13    6.8763649868789e-16
  14    1.6979362537521e-15
  15    1.2639225244411e-14
  16    2.3545642241991e-16
  17    -4.666652314203e-16
  18      0.99999928541246
  19    5.747616737365e-16
  20    -2.236349356271e-15
  21    5.907942738211e-16
  22    -1.825396902514e-15
  23    2.1428375147164e-17
  24    3.5533327512601e-16
  25    -1.0274382608324e-15
  26    5.9964862399513e-16
  27    -4.8565344246782e-16
  28    -2.239205401089e-16
  29    2.2520074938898e-16
  30    7.0465309439709e-16
  31    1.1066851360715e-16
  32    -1.0024186444977e-15
  33    -9.3600412992124e-16
  34    3.7915694990248e-17
  35    9.3590190924547e-17
  36    4.4581427053441e-15
  37    3.456552500013e-15
  38    -1.1033424291148e-16
  39    6.6083089668727e-16
  40    -0.0012015607537529
  41    7.383242951876e-16
  42    -5.0892980135416e-16
  43    5.4716917740504e-16
  44    1.1392765156806e-16
 Sym= A
 Ene=      2.08497016
 Spin= Alpha
 Occup=    0.00000
   1    -0.0047913158026502
   2      0.32018671355319
   3     -0.65493571722833
   4      0.48258089745921
   5    -6.9914185648447e-16
   6    -4.739851820478e-15
   7     0.024285424028591
   8    2.5527690481921e-15
   9    1.0174831294593e-14
  10     -0.21759069713227
  11    -1.5745473994805e-15
  12    1.4612619488275e-14
  13      0.33948698900349
  14      0.90074851160721
  15    -2.8659362533218e-14
  16    3.6272945833647e-15
  17     0.093221785596368
  18    2.1061872233681e-16
  19     0.089635256608472
  20     0.042412540532036
  21     0.089635256608482
  22     0.042412540531979
  23    0.0036846152970882
  24     -0.24279409641316
  25      0.50903385388794
  26     -0.50942985760546
  27    6.6190024395104e-16
  28    -1.2586247212273e-16
  29    -0.0032408053650656
  30    -1.5965392304704e-15
  31    1.1907006863205e-15
  32    0.0060897409751474
  33    2.0371468384016e-15
  34    4.3721184120851e-16
  35      0.30753708397147
  36     -0.38946853956378
  37    -1.3205811840058e-15
  38    -2.765030504901e-15
  39      0.03032661017261
  40    6.1939373074674e-18
  41    -0.032944312362491
  42    -0.010490453597693
  43    -0.032944312362495
  44    -0.010490453597686
 Sym= A
 Ene=     2.087547519
 Spin= Alpha
 Occup=    0.00000
   1    -1.1001970411931e-16
   2    8.8644857675134e-15
   3    -1.7844388541698e-14
   4    1.4888860572959e-14
   5     0.015103061149302
   6    -3.6749284587371e-17
   7    1.1472990661578e-15
   8    -0.079473684274437
   9    5.7624663967296e-16
  10    -7.3144891940429e-15
  11     0.053395157329723
  12    3.9309222812683e-16
  13    1.0550549486292e-14
  14    2.7900646881483e-14
  15      0.99828961754216
  16    1.5043808536924e-16
  17    2.2046728014894e-15
  18    -1.3035940944867e-14
  19    3.5851452232255e-15
  20    3.3297590743974e-17
  21    3.1465412785208e-15
  22    -1.3457121992747e-15
  23    1.0903753562974e-16
  24    -6.4935644583561e-15
  25    1.3394500441009e-14
  26    -1.4255279047901e-14
  27    -0.022872358625011
  28    2.0735773394508e-16
  29    8.3128009997073e-17
  30      0.05552576512925
  31    -2.9396508562485e-16
  32    -2.1271167725244e-16
  33    -0.070725522224332
  34    2.3364962242708e-16
  35    7.9240896212147e-15
  36    -6.3632528654292e-15
  37     0.043508136393864
  38    8.5937755115822e-17
  39    1.497039896714e-15
  40    4.0295236947322e-17
  41    -7.4244036294748e-16
  42    7.4289350141513e-17
  43    -6.4943610553893e-16
  44    -1.2109807642875e-16
 Sym= A
 Ene=     2.604563407
 Spin= Alpha
 Occup=    0.00000
   1     0.005655804995309
   2     0.078567605531607
   3     -0.21635367537374
   4      0.19633987695526
   5    4.0424168542458e-17
   6    -2.7619059586388e-15
   7    -0.020863134221025
   8    -9.6788899173944e-19
   9    9.6475194152759e-15
  10     -0.09068818817568
  11    1.0317798506397e-17
  12    7.4473718968272e-15
  13     0.097664174501013
  14     0.021969890761404
  15    -3.2816268423078e-17
  16    6.209977331896e-15
  17      0.21591283194401
  18    1.0969691930716e-16
  19      0.19121077103792
  20     -0.11039730843312
  21      0.19121077103792
  22     -0.11039730843316
  23    -0.020788600340992
  24     -0.57135335963663
  25       1.3446695650191
  26     -0.37344696098335
  27    7.0119349554969e-20
  28    -9.0565816019914e-16
  29    -0.027889783449415
  30    -1.4990160232015e-18
  31    1.1141737745024e-14
  32      0.68975973648197
  33    2.5726026449021e-18
  34    2.1377337522195e-15
  35     -0.11207989659196
  36      0.15713977561427
  37    1.4441455178263e-18
  38    1.3487320918058e-14
  39      -1.0377197719197
  40    5.7398510952667e-18
  41     -0.88919953757558
  42      0.12903057463813
  43      -0.8891995375756
  44      0.12903057463812
 Sym= A
 Ene=        2.686765
 Spin= Alpha
 Occup=    0.00000
   1    -0.022075229684852
   2     -0.55516367842951
   3       1.3139207727221
   4     -0.48520278773494
   5    -1.4725884164332e-16
   6    5.9068466466706e-15
   7     -0.06184868792325
   8    8.3724889898785e-17
   9    -2.1600911229483e-14
  10      0.77128270891313
  11    -3.5855091517962e-17
  12    -1.4454836204619e-14
  13     -0.28322752941839
  14       0.1455665828662
  15    1.4996463173912e-17
  16    -1.0100480044043e-14
  17      -1.0267609515195
  18    1.2278906292129e-18
  19     -0.92439114457455
  20      0.21406141967993
  21     -0.92439114457455
  22         0.21406141968
  23    -0.0088619918349109
  24    -0.0096606703471642
  25      0.13113798193299
  26       0.1255282036155
  27    -1.0840434427642e-18
  28    1.2714566923985e-15
  29    -0.087645600011183
  30    2.6766883849813e-18
  31    -1.6609488683933e-15
  32      0.32957711610967
  33    6.4488262648722e-19
  34    -1.1008802773527e-14
  35     -0.15003105739241
  36    -0.049253169184432
  37    -1.6764025437566e-18
  38    3.6657455725676e-15
  39     -0.22971256363567
  40    2.5916379156048e-19
  41     -0.21082293398101
  42    0.0050454958795339
  43     -0.21082293398101
  44     0.005045495879555
 Sym= A
 Ene=     3.001376202
 Spin= Alpha
 Occup=    0.00000
   1    5.0796232244169e-18
   2    8.1041527761447e-16
   3    -3.0079449674059e-15
   4    -2.9391411256771e-16
   5    -5.1129147550998e-16
   6     0.030100336081125
   7    5.0594067262413e-16
   8    9.0608752567579e-16
   9     -0.15842117247693
  10    -1.41142486457e-15
  11    -6.4692573151962e-16
  12     0.044962876105614
  13    7.5752620655082e-16
  14    1.0143103905098e-17
  15    -3.5409395485709e-17
  16    -0.096954745875031
  17    1.0866564068085e-15
  18    1.3689380231958e-16
  19    -0.067878824165349
  20     -0.10460601802038
  21      0.06787882416535
  22      0.10460601802039
  23    1.0128327894058e-15
  24    -1.2607170391718e-14
  25    2.3290347799011e-14
  26    3.7461972186454e-14
  27    1.2629697756564e-16
  28    -0.039229988360563
  29    -9.6478055666357e-16
  30    -1.5803826558436e-16
  31      0.96499305335258
  32    -5.9336687095319e-15
  33    9.1769446992071e-17
  34     -0.53149897797626
  35    2.7678168855989e-14
  36    -1.7509806534527e-15
  37    1.4289143801674e-17
  38       1.2690266873701
  39    9.7439228547262e-15
  40    2.2094105617999e-16
  41       1.0893335075846
  42     -0.55658569646737
  43      -1.0893335075845
  44      0.55658569646729
 Sym= A
 Ene=     3.048935798
 Spin= Alpha
 Occup=    0.00000
   1    -3.3024680483425e-16
   2    -2.7716413126813e-15
   3    1.8283222717768e-15
   4    -6.8980963358142e-14
   5    -6.6308587599877e-15
   6    -0.048552745519044
   7    1.6165791035303e-15
   8    1.0310959218403e-14
   9      0.98874874729674
  10    1.2146658295402e-16
  11    -5.3995783957442e-15
  12     -0.40999921152666
  13    -3.0352658535049e-14
  14    -3.9204076406846e-16
  15    1.0578390228098e-16
  16       1.2726127184871
  17    -4.1242223699267e-15
  18    -1.351755457338e-16
  19       1.0703733912241
  20     -0.41882758418082
  21      -1.0703733912242
  22      0.41882758418091
  23    1.4280886968623e-17
  24    5.8141318904874e-15
  25    -1.0367720780975e-14
  26    2.1574741114328e-14
  27    1.2880796777996e-15
  28     0.001550687012179
  29    -2.3490298542851e-15
  30    -1.6102349768991e-15
  31     0.043394839113805
  32    4.5638655538558e-15
  33    9.4882337118798e-16
  34     0.028974107415273
  35    -6.1167091314153e-15
  36    -1.661435815089e-15
  37    1.1133236249405e-16
  38     0.099181317758616
  39    2.9068446252555e-15
  40    2.1099837441354e-15
  41     0.061026156761232
  42     0.014158979343639
  43    -0.061026156761226
  44    -0.014158979343651
